! RKS B3LYP 6-31+G** NormalSCF Opt NOSOSCF CHELPG PAL8

*xyz 0 1
H -275.28975 0.12820 0.00451
C -267.85173 0.21943 -0.00160
C -268.28831 1.51706 -0.05525
C -269.72826 1.64799 -0.06086
H -267.59118 2.34505 -0.08942
S -269.14392 -0.86899 0.04351
C -270.34437 0.38757 -0.00891
C -270.42634 2.99623 -0.11591
C -269.49426 4.21413 -0.18106
H -271.05657 3.09769 0.77579
H -271.07312 3.01745 -1.00117
C -270.26794 5.53186 -0.22703
H -268.85604 4.14424 -1.07101
H -268.83261 4.22204 0.69431
C -269.31894 6.71953 -0.29951
H -270.89727 5.62723 0.66518
H -270.93169 5.54685 -1.09896
H -268.65582 6.74566 0.57143
H -269.88214 7.65733 -0.32590
H -268.69798 6.67057 -1.20005
C -271.75507 -0.00909 0.00674
S -273.06509 1.09837 -0.02545
C -272.25919 -1.30540 0.04965
C -273.69221 -1.39941 0.05321
H -271.61871 -2.17824 0.07709
C -274.24023 -0.13382 0.01309
C -274.51461 -2.66320 0.09188
C -273.70839 -3.96393 0.14939
H -275.15896 -2.67996 -0.79672
H -275.17755 -2.61475 0.96559
C -274.62023 -5.19141 0.17284
H -273.07285 -3.96786 1.04394
H -273.04182 -4.02784 -0.71991
C -273.81477 -6.47992 0.24176
H -275.24661 -5.20701 -0.72658
H -275.29250 -5.14115 1.03708
H -273.14817 -6.57328 -0.62163
H -274.48380 -7.34608 0.24934
H -273.20567 -6.51355 1.15082
C -261.09023 0.39912 -0.11982
C -261.40925 1.69056 -0.44451
C -262.83794 1.77532 -0.46391
H -260.69583 2.47740 -0.64363
O -262.21396 -0.32426 0.06383
C -263.29758 0.49715 -0.14161
C -263.66471 2.99488 -0.76824
C -262.82530 4.23323 -1.11299
H -264.29647 3.21852 0.10042
H -264.33310 2.76937 -1.60853
C -263.67603 5.46683 -1.40812
H -262.19556 4.01762 -1.98596
H -262.14852 4.46196 -0.27955
C -262.79437 6.66190 -1.74627
H -264.29651 5.71095 -0.53855
H -264.35050 5.26630 -2.24805
H -262.12114 6.90038 -0.91602
H -263.40717 7.54497 -1.95069
H -262.18306 6.45995 -2.63219
C -264.63134 -0.01912 -0.01124
O -265.78012 0.70407 -0.19354
C -266.83024 -0.13382 0.01309
C -264.98256 -1.31867 0.31417
C -266.40143 -1.40681 0.33144
H -264.27218 -2.11005 0.51302
C -267.25882 -2.60039 0.62149
C -266.47067 -3.86542 0.98246
H -267.88319 -2.80303 -0.25787
H -267.93834 -2.35194 1.44656
C -267.38739 -5.05865 1.25121
H -265.85452 -3.67591 1.87082
H -265.78330 -4.11950 0.16537
C -266.58386 -6.30015 1.61088
H -265.99162 -6.13542 2.51692
H -265.90030 -6.57422 0.80062
H -267.25238 -7.14753 1.79186
H -267.99556 -5.26891 0.36399
H -268.07549 -4.82494 2.07153
C -253.77155 0.21943 -0.00160
C -254.20813 1.51706 -0.05525
C -255.64808 1.64799 -0.06086
H -253.51100 2.34505 -0.08942
S -255.06374 -0.86899 0.04351
C -256.26419 0.38757 -0.00891
C -256.34616 2.99623 -0.11591
C -255.41408 4.21413 -0.18106
H -256.97639 3.09769 0.77579
H -256.99294 3.01745 -1.00117
C -256.18776 5.53186 -0.22703
H -254.77586 4.14424 -1.07101
H -254.75243 4.22204 0.69431
C -255.23876 6.71953 -0.29951
H -256.81709 5.62723 0.66518
H -256.85151 5.54685 -1.09896
H -254.57564 6.74566 0.57143
H -255.80196 7.65733 -0.32590
H -254.61780 6.67057 -1.20005
C -257.67489 -0.00909 0.00674
S -258.98491 1.09837 -0.02545
C -258.17901 -1.30540 0.04965
C -259.61203 -1.39941 0.05321
H -257.53853 -2.17824 0.07709
C -260.16005 -0.13382 0.01309
C -260.43443 -2.66320 0.09188
C -259.62821 -3.96393 0.14939
H -261.07878 -2.67996 -0.79672
H -261.09737 -2.61475 0.96559
C -260.54005 -5.19141 0.17284
H -258.99267 -3.96786 1.04394
H -258.96164 -4.02784 -0.71991
C -259.73459 -6.47992 0.24176
H -261.16643 -5.20701 -0.72658
H -261.21232 -5.14115 1.03708
H -259.06799 -6.57328 -0.62163
H -260.40362 -7.34608 0.24934
H -259.12549 -6.51355 1.15082
C -246.36156 0.21943 -0.00160
C -246.79814 1.51706 -0.05525
C -248.23809 1.64799 -0.06086
H -246.10101 2.34505 -0.08942
S -247.65375 -0.86899 0.04351
C -248.85420 0.38757 -0.00891
C -248.93617 2.99623 -0.11591
C -248.00409 4.21413 -0.18106
H -249.56640 3.09769 0.77579
H -249.58295 3.01745 -1.00117
C -248.77777 5.53186 -0.22703
H -247.36587 4.14424 -1.07101
H -247.34244 4.22204 0.69431
C -247.82877 6.71953 -0.29951
H -249.40710 5.62723 0.66518
H -249.44152 5.54685 -1.09896
H -247.16565 6.74566 0.57143
H -248.39197 7.65733 -0.32590
H -247.20781 6.67057 -1.20005
C -250.26490 -0.00909 0.00674
S -251.57492 1.09837 -0.02545
C -250.76902 -1.30540 0.04965
C -252.20204 -1.39941 0.05321
H -250.12854 -2.17824 0.07709
C -252.75006 -0.13382 0.01309
C -253.02444 -2.66320 0.09188
C -252.21822 -3.96393 0.14939
H -253.66879 -2.67996 -0.79672
H -253.68738 -2.61475 0.96559
C -253.13006 -5.19141 0.17284
H -251.58268 -3.96786 1.04394
H -251.55165 -4.02784 -0.71991
C -252.32460 -6.47992 0.24176
H -253.75644 -5.20701 -0.72658
H -253.80233 -5.14115 1.03708
H -251.65800 -6.57328 -0.62163
H -252.99363 -7.34608 0.24934
H -251.71550 -6.51355 1.15082
C -238.95157 0.21943 -0.00160
C -239.38815 1.51706 -0.05525
C -240.82810 1.64799 -0.06086
H -238.69102 2.34505 -0.08942
S -240.24376 -0.86899 0.04351
C -241.44421 0.38757 -0.00891
C -241.52618 2.99623 -0.11591
C -240.59410 4.21413 -0.18106
H -242.15641 3.09769 0.77579
H -242.17296 3.01745 -1.00117
C -241.36778 5.53186 -0.22703
H -239.95588 4.14424 -1.07101
H -239.93245 4.22204 0.69431
C -240.41878 6.71953 -0.29951
H -241.99711 5.62723 0.66518
H -242.03153 5.54685 -1.09896
H -239.75566 6.74566 0.57143
H -240.98198 7.65733 -0.32590
H -239.79782 6.67057 -1.20005
C -242.85491 -0.00909 0.00674
S -244.16493 1.09837 -0.02545
C -243.35903 -1.30540 0.04965
C -244.79205 -1.39941 0.05321
H -242.71855 -2.17824 0.07709
C -245.34007 -0.13382 0.01309
C -245.61445 -2.66320 0.09188
C -244.80823 -3.96393 0.14939
H -246.25880 -2.67996 -0.79672
H -246.27739 -2.61475 0.96559
C -245.72007 -5.19141 0.17284
H -244.17269 -3.96786 1.04394
H -244.14166 -4.02784 -0.71991
C -244.91461 -6.47992 0.24176
H -246.34645 -5.20701 -0.72658
H -246.39234 -5.14115 1.03708
H -244.24801 -6.57328 -0.62163
H -245.58364 -7.34608 0.24934
H -244.30551 -6.51355 1.15082
C -231.54158 0.21943 -0.00160
C -231.97816 1.51706 -0.05525
C -233.41811 1.64799 -0.06086
H -231.28103 2.34505 -0.08942
S -232.83377 -0.86899 0.04351
C -234.03422 0.38757 -0.00891
C -234.11619 2.99623 -0.11591
C -233.18411 4.21413 -0.18106
H -234.74642 3.09769 0.77579
H -234.76297 3.01745 -1.00117
C -233.95779 5.53186 -0.22703
H -232.54589 4.14424 -1.07101
H -232.52246 4.22204 0.69431
C -233.00879 6.71953 -0.29951
H -234.58712 5.62723 0.66518
H -234.62154 5.54685 -1.09896
H -232.34567 6.74566 0.57143
H -233.57199 7.65733 -0.32590
H -232.38783 6.67057 -1.20005
C -235.44492 -0.00909 0.00674
S -236.75494 1.09837 -0.02545
C -235.94904 -1.30540 0.04965
C -237.38206 -1.39941 0.05321
H -235.30856 -2.17824 0.07709
C -237.93008 -0.13382 0.01309
C -238.20446 -2.66320 0.09188
C -237.39824 -3.96393 0.14939
H -238.84881 -2.67996 -0.79672
H -238.86740 -2.61475 0.96559
C -238.31008 -5.19141 0.17284
H -236.76270 -3.96786 1.04394
H -236.73167 -4.02784 -0.71991
C -237.50462 -6.47992 0.24176
H -238.93646 -5.20701 -0.72658
H -238.98235 -5.14115 1.03708
H -236.83802 -6.57328 -0.62163
H -238.17365 -7.34608 0.24934
H -236.89552 -6.51355 1.15082
C -224.13159 0.21943 -0.00160
C -224.56817 1.51706 -0.05525
C -226.00812 1.64799 -0.06086
H -223.87104 2.34505 -0.08942
S -225.42378 -0.86899 0.04351
C -226.62423 0.38757 -0.00891
C -226.70620 2.99623 -0.11591
C -225.77412 4.21413 -0.18106
H -227.33643 3.09769 0.77579
H -227.35298 3.01745 -1.00117
C -226.54780 5.53186 -0.22703
H -225.13590 4.14424 -1.07101
H -225.11247 4.22204 0.69431
C -225.59880 6.71953 -0.29951
H -227.17713 5.62723 0.66518
H -227.21155 5.54685 -1.09896
H -224.93568 6.74566 0.57143
H -226.16200 7.65733 -0.32590
H -224.97784 6.67057 -1.20005
C -228.03493 -0.00909 0.00674
S -229.34495 1.09837 -0.02545
C -228.53905 -1.30540 0.04965
C -229.97207 -1.39941 0.05321
H -227.89857 -2.17824 0.07709
C -230.52009 -0.13382 0.01309
C -230.79447 -2.66320 0.09188
C -229.98825 -3.96393 0.14939
H -231.43882 -2.67996 -0.79672
H -231.45741 -2.61475 0.96559
C -230.90009 -5.19141 0.17284
H -229.35271 -3.96786 1.04394
H -229.32168 -4.02784 -0.71991
C -230.09463 -6.47992 0.24176
H -231.52647 -5.20701 -0.72658
H -231.57236 -5.14115 1.03708
H -229.42803 -6.57328 -0.62163
H -230.76366 -7.34608 0.24934
H -229.48553 -6.51355 1.15082
C -216.72160 0.21943 -0.00160
C -217.15818 1.51706 -0.05525
C -218.59813 1.64799 -0.06086
H -216.46105 2.34505 -0.08942
S -218.01379 -0.86899 0.04351
C -219.21424 0.38757 -0.00891
C -219.29621 2.99623 -0.11591
C -218.36413 4.21413 -0.18106
H -219.92644 3.09769 0.77579
H -219.94299 3.01745 -1.00117
C -219.13781 5.53186 -0.22703
H -217.72591 4.14424 -1.07101
H -217.70248 4.22204 0.69431
C -218.18881 6.71953 -0.29951
H -219.76714 5.62723 0.66518
H -219.80156 5.54685 -1.09896
H -217.52569 6.74566 0.57143
H -218.75201 7.65733 -0.32590
H -217.56785 6.67057 -1.20005
C -220.62494 -0.00909 0.00674
S -221.93496 1.09837 -0.02545
C -221.12906 -1.30540 0.04965
C -222.56208 -1.39941 0.05321
H -220.48858 -2.17824 0.07709
C -223.11010 -0.13382 0.01309
C -223.38448 -2.66320 0.09188
C -222.57826 -3.96393 0.14939
H -224.02883 -2.67996 -0.79672
H -224.04742 -2.61475 0.96559
C -223.49010 -5.19141 0.17284
H -221.94272 -3.96786 1.04394
H -221.91169 -4.02784 -0.71991
C -222.68464 -6.47992 0.24176
H -224.11648 -5.20701 -0.72658
H -224.16237 -5.14115 1.03708
H -222.01804 -6.57328 -0.62163
H -223.35367 -7.34608 0.24934
H -222.07554 -6.51355 1.15082
C -209.96010 0.39912 -0.11982
C -210.27912 1.69056 -0.44451
C -211.70781 1.77532 -0.46391
H -209.56570 2.47740 -0.64363
O -211.08383 -0.32426 0.06383
C -212.16745 0.49715 -0.14161
C -212.53458 2.99488 -0.76824
C -211.69517 4.23323 -1.11299
H -213.16634 3.21852 0.10042
H -213.20297 2.76937 -1.60853
C -212.54590 5.46683 -1.40812
H -211.06543 4.01762 -1.98596
H -211.01839 4.46196 -0.27955
C -211.66424 6.66190 -1.74627
H -213.16638 5.71095 -0.53855
H -213.22037 5.26630 -2.24805
H -210.99101 6.90038 -0.91602
H -212.27704 7.54497 -1.95069
H -211.05293 6.45995 -2.63219
C -213.50121 -0.01912 -0.01124
O -214.64999 0.70407 -0.19354
C -215.70011 -0.13382 0.01309
C -213.85243 -1.31867 0.31417
C -215.27130 -1.40681 0.33144
H -213.14205 -2.11005 0.51302
C -216.12869 -2.60039 0.62149
C -215.34054 -3.86542 0.98246
H -216.75306 -2.80303 -0.25787
H -216.80821 -2.35194 1.44656
C -216.25726 -5.05865 1.25121
H -214.72439 -3.67591 1.87082
H -214.65317 -4.11950 0.16537
C -215.45373 -6.30015 1.61088
H -214.86149 -6.13542 2.51692
H -214.77017 -6.57422 0.80062
H -216.12225 -7.14753 1.79186
H -216.86543 -5.26891 0.36399
H -216.94536 -4.82494 2.07153
C -203.28991 0.39912 -0.11982
C -203.60893 1.69056 -0.44451
C -205.03762 1.77532 -0.46391
H -202.89551 2.47740 -0.64363
O -204.41364 -0.32426 0.06383
C -205.49726 0.49715 -0.14161
C -205.86439 2.99488 -0.76824
C -205.02498 4.23323 -1.11299
H -206.49615 3.21852 0.10042
H -206.53278 2.76937 -1.60853
C -205.87571 5.46683 -1.40812
H -204.39524 4.01762 -1.98596
H -204.34820 4.46196 -0.27955
C -204.99405 6.66190 -1.74627
H -206.49619 5.71095 -0.53855
H -206.55018 5.26630 -2.24805
H -204.32082 6.90038 -0.91602
H -205.60685 7.54497 -1.95069
H -204.38274 6.45995 -2.63219
C -206.83102 -0.01912 -0.01124
O -207.97980 0.70407 -0.19354
C -209.02992 -0.13382 0.01309
C -207.18224 -1.31867 0.31417
C -208.60111 -1.40681 0.33144
H -206.47186 -2.11005 0.51302
C -209.45850 -2.60039 0.62149
C -208.67035 -3.86542 0.98246
H -210.08287 -2.80303 -0.25787
H -210.13802 -2.35194 1.44656
C -209.58707 -5.05865 1.25121
H -208.05420 -3.67591 1.87082
H -207.98298 -4.11950 0.16537
C -208.78354 -6.30015 1.61088
H -208.19130 -6.13542 2.51692
H -208.09998 -6.57422 0.80062
H -209.45206 -7.14753 1.79186
H -210.19524 -5.26891 0.36399
H -210.27517 -4.82494 2.07153
C -195.97123 0.21943 -0.00160
C -196.40781 1.51706 -0.05525
C -197.84776 1.64799 -0.06086
H -195.71068 2.34505 -0.08942
S -197.26342 -0.86899 0.04351
C -198.46387 0.38757 -0.00891
C -198.54584 2.99623 -0.11591
C -197.61376 4.21413 -0.18106
H -199.17607 3.09769 0.77579
H -199.19262 3.01745 -1.00117
C -198.38744 5.53186 -0.22703
H -196.97554 4.14424 -1.07101
H -196.95211 4.22204 0.69431
C -197.43844 6.71953 -0.29951
H -199.01677 5.62723 0.66518
H -199.05119 5.54685 -1.09896
H -196.77532 6.74566 0.57143
H -198.00164 7.65733 -0.32590
H -196.81748 6.67057 -1.20005
C -199.87457 -0.00909 0.00674
S -201.18459 1.09837 -0.02545
C -200.37869 -1.30540 0.04965
C -201.81171 -1.39941 0.05321
H -199.73821 -2.17824 0.07709
C -202.35973 -0.13382 0.01309
C -202.63411 -2.66320 0.09188
C -201.82789 -3.96393 0.14939
H -203.27846 -2.67996 -0.79672
H -203.29705 -2.61475 0.96559
C -202.73973 -5.19141 0.17284
H -201.19235 -3.96786 1.04394
H -201.16132 -4.02784 -0.71991
C -201.93427 -6.47992 0.24176
H -203.36611 -5.20701 -0.72658
H -203.41200 -5.14115 1.03708
H -201.26767 -6.57328 -0.62163
H -202.60330 -7.34608 0.24934
H -201.32517 -6.51355 1.15082
C -188.56124 0.21943 -0.00160
C -188.99782 1.51706 -0.05525
C -190.43777 1.64799 -0.06086
H -188.30069 2.34505 -0.08942
S -189.85343 -0.86899 0.04351
C -191.05388 0.38757 -0.00891
C -191.13585 2.99623 -0.11591
C -190.20377 4.21413 -0.18106
H -191.76608 3.09769 0.77579
H -191.78263 3.01745 -1.00117
C -190.97745 5.53186 -0.22703
H -189.56555 4.14424 -1.07101
H -189.54212 4.22204 0.69431
C -190.02845 6.71953 -0.29951
H -191.60678 5.62723 0.66518
H -191.64120 5.54685 -1.09896
H -189.36533 6.74566 0.57143
H -190.59165 7.65733 -0.32590
H -189.40749 6.67057 -1.20005
C -192.46458 -0.00909 0.00674
S -193.77460 1.09837 -0.02545
C -192.96870 -1.30540 0.04965
C -194.40172 -1.39941 0.05321
H -192.32822 -2.17824 0.07709
C -194.94974 -0.13382 0.01309
C -195.22412 -2.66320 0.09188
C -194.41790 -3.96393 0.14939
H -195.86847 -2.67996 -0.79672
H -195.88706 -2.61475 0.96559
C -195.32974 -5.19141 0.17284
H -193.78236 -3.96786 1.04394
H -193.75133 -4.02784 -0.71991
C -194.52428 -6.47992 0.24176
H -195.95612 -5.20701 -0.72658
H -196.00201 -5.14115 1.03708
H -193.85768 -6.57328 -0.62163
H -195.19331 -7.34608 0.24934
H -193.91518 -6.51355 1.15082
C -181.15125 0.21943 -0.00160
C -181.58783 1.51706 -0.05525
C -183.02778 1.64799 -0.06086
H -180.89070 2.34505 -0.08942
S -182.44344 -0.86899 0.04351
C -183.64389 0.38757 -0.00891
C -183.72586 2.99623 -0.11591
C -182.79378 4.21413 -0.18106
H -184.35609 3.09769 0.77579
H -184.37264 3.01745 -1.00117
C -183.56746 5.53186 -0.22703
H -182.15556 4.14424 -1.07101
H -182.13213 4.22204 0.69431
C -182.61846 6.71953 -0.29951
H -184.19679 5.62723 0.66518
H -184.23121 5.54685 -1.09896
H -181.95534 6.74566 0.57143
H -183.18166 7.65733 -0.32590
H -181.99750 6.67057 -1.20005
C -185.05459 -0.00909 0.00674
S -186.36461 1.09837 -0.02545
C -185.55871 -1.30540 0.04965
C -186.99173 -1.39941 0.05321
H -184.91823 -2.17824 0.07709
C -187.53975 -0.13382 0.01309
C -187.81413 -2.66320 0.09188
C -187.00791 -3.96393 0.14939
H -188.45848 -2.67996 -0.79672
H -188.47707 -2.61475 0.96559
C -187.91975 -5.19141 0.17284
H -186.37237 -3.96786 1.04394
H -186.34134 -4.02784 -0.71991
C -187.11429 -6.47992 0.24176
H -188.54613 -5.20701 -0.72658
H -188.59202 -5.14115 1.03708
H -186.44769 -6.57328 -0.62163
H -187.78332 -7.34608 0.24934
H -186.50519 -6.51355 1.15082
C -173.74126 0.21943 -0.00160
C -174.17784 1.51706 -0.05525
C -175.61779 1.64799 -0.06086
H -173.48071 2.34505 -0.08942
S -175.03345 -0.86899 0.04351
C -176.23390 0.38757 -0.00891
C -176.31587 2.99623 -0.11591
C -175.38379 4.21413 -0.18106
H -176.94610 3.09769 0.77579
H -176.96265 3.01745 -1.00117
C -176.15747 5.53186 -0.22703
H -174.74557 4.14424 -1.07101
H -174.72214 4.22204 0.69431
C -175.20847 6.71953 -0.29951
H -176.78680 5.62723 0.66518
H -176.82122 5.54685 -1.09896
H -174.54535 6.74566 0.57143
H -175.77167 7.65733 -0.32590
H -174.58751 6.67057 -1.20005
C -177.64460 -0.00909 0.00674
S -178.95462 1.09837 -0.02545
C -178.14872 -1.30540 0.04965
C -179.58174 -1.39941 0.05321
H -177.50824 -2.17824 0.07709
C -180.12976 -0.13382 0.01309
C -180.40414 -2.66320 0.09188
C -179.59792 -3.96393 0.14939
H -181.04849 -2.67996 -0.79672
H -181.06708 -2.61475 0.96559
C -180.50976 -5.19141 0.17284
H -178.96238 -3.96786 1.04394
H -178.93135 -4.02784 -0.71991
C -179.70430 -6.47992 0.24176
H -181.13614 -5.20701 -0.72658
H -181.18203 -5.14115 1.03708
H -179.03770 -6.57328 -0.62163
H -180.37333 -7.34608 0.24934
H -179.09520 -6.51355 1.15082
C -166.33127 0.21943 -0.00160
C -166.76785 1.51706 -0.05525
C -168.20780 1.64799 -0.06086
H -166.07072 2.34505 -0.08942
S -167.62346 -0.86899 0.04351
C -168.82391 0.38757 -0.00891
C -168.90588 2.99623 -0.11591
C -167.97380 4.21413 -0.18106
H -169.53611 3.09769 0.77579
H -169.55266 3.01745 -1.00117
C -168.74748 5.53186 -0.22703
H -167.33558 4.14424 -1.07101
H -167.31215 4.22204 0.69431
C -167.79848 6.71953 -0.29951
H -169.37681 5.62723 0.66518
H -169.41123 5.54685 -1.09896
H -167.13536 6.74566 0.57143
H -168.36168 7.65733 -0.32590
H -167.17752 6.67057 -1.20005
C -170.23461 -0.00909 0.00674
S -171.54463 1.09837 -0.02545
C -170.73873 -1.30540 0.04965
C -172.17175 -1.39941 0.05321
H -170.09825 -2.17824 0.07709
C -172.71977 -0.13382 0.01309
C -172.99415 -2.66320 0.09188
C -172.18793 -3.96393 0.14939
H -173.63850 -2.67996 -0.79672
H -173.65709 -2.61475 0.96559
C -173.09977 -5.19141 0.17284
H -171.55239 -3.96786 1.04394
H -171.52136 -4.02784 -0.71991
C -172.29431 -6.47992 0.24176
H -173.72615 -5.20701 -0.72658
H -173.77204 -5.14115 1.03708
H -171.62771 -6.57328 -0.62163
H -172.96334 -7.34608 0.24934
H -171.68521 -6.51355 1.15082
C -158.92128 0.21943 -0.00160
C -159.35786 1.51706 -0.05525
C -160.79781 1.64799 -0.06086
H -158.66073 2.34505 -0.08942
S -160.21347 -0.86899 0.04351
C -161.41392 0.38757 -0.00891
C -161.49589 2.99623 -0.11591
C -160.56381 4.21413 -0.18106
H -162.12612 3.09769 0.77579
H -162.14267 3.01745 -1.00117
C -161.33749 5.53186 -0.22703
H -159.92559 4.14424 -1.07101
H -159.90216 4.22204 0.69431
C -160.38849 6.71953 -0.29951
H -161.96682 5.62723 0.66518
H -162.00124 5.54685 -1.09896
H -159.72537 6.74566 0.57143
H -160.95169 7.65733 -0.32590
H -159.76753 6.67057 -1.20005
C -162.82462 -0.00909 0.00674
S -164.13464 1.09837 -0.02545
C -163.32874 -1.30540 0.04965
C -164.76176 -1.39941 0.05321
H -162.68826 -2.17824 0.07709
C -165.30978 -0.13382 0.01309
C -165.58416 -2.66320 0.09188
C -164.77794 -3.96393 0.14939
H -166.22851 -2.67996 -0.79672
H -166.24710 -2.61475 0.96559
C -165.68978 -5.19141 0.17284
H -164.14240 -3.96786 1.04394
H -164.11137 -4.02784 -0.71991
C -164.88432 -6.47992 0.24176
H -166.31616 -5.20701 -0.72658
H -166.36205 -5.14115 1.03708
H -164.21772 -6.57328 -0.62163
H -165.55335 -7.34608 0.24934
H -164.27522 -6.51355 1.15082
C -151.51129 0.21943 -0.00160
C -151.94787 1.51706 -0.05525
C -153.38782 1.64799 -0.06086
H -151.25074 2.34505 -0.08942
S -152.80348 -0.86899 0.04351
C -154.00393 0.38757 -0.00891
C -154.08590 2.99623 -0.11591
C -153.15382 4.21413 -0.18106
H -154.71613 3.09769 0.77579
H -154.73268 3.01745 -1.00117
C -153.92750 5.53186 -0.22703
H -152.51560 4.14424 -1.07101
H -152.49217 4.22204 0.69431
C -152.97850 6.71953 -0.29951
H -154.55683 5.62723 0.66518
H -154.59125 5.54685 -1.09896
H -152.31538 6.74566 0.57143
H -153.54170 7.65733 -0.32590
H -152.35754 6.67057 -1.20005
C -155.41463 -0.00909 0.00674
S -156.72465 1.09837 -0.02545
C -155.91875 -1.30540 0.04965
C -157.35177 -1.39941 0.05321
H -155.27827 -2.17824 0.07709
C -157.89979 -0.13382 0.01309
C -158.17417 -2.66320 0.09188
C -157.36795 -3.96393 0.14939
H -158.81852 -2.67996 -0.79672
H -158.83711 -2.61475 0.96559
C -158.27979 -5.19141 0.17284
H -156.73241 -3.96786 1.04394
H -156.70138 -4.02784 -0.71991
C -157.47433 -6.47992 0.24176
H -158.90617 -5.20701 -0.72658
H -158.95206 -5.14115 1.03708
H -156.80773 -6.57328 -0.62163
H -158.14336 -7.34608 0.24934
H -156.86523 -6.51355 1.15082
C -144.10130 0.21943 -0.00160
C -144.53788 1.51706 -0.05525
C -145.97783 1.64799 -0.06086
H -143.84075 2.34505 -0.08942
S -145.39349 -0.86899 0.04351
C -146.59394 0.38757 -0.00891
C -146.67591 2.99623 -0.11591
C -145.74383 4.21413 -0.18106
H -147.30614 3.09769 0.77579
H -147.32269 3.01745 -1.00117
C -146.51751 5.53186 -0.22703
H -145.10561 4.14424 -1.07101
H -145.08218 4.22204 0.69431
C -145.56851 6.71953 -0.29951
H -147.14684 5.62723 0.66518
H -147.18126 5.54685 -1.09896
H -144.90539 6.74566 0.57143
H -146.13171 7.65733 -0.32590
H -144.94755 6.67057 -1.20005
C -148.00464 -0.00909 0.00674
S -149.31466 1.09837 -0.02545
C -148.50876 -1.30540 0.04965
C -149.94178 -1.39941 0.05321
H -147.86828 -2.17824 0.07709
C -150.48980 -0.13382 0.01309
C -150.76418 -2.66320 0.09188
C -149.95796 -3.96393 0.14939
H -151.40853 -2.67996 -0.79672
H -151.42712 -2.61475 0.96559
C -150.86980 -5.19141 0.17284
H -149.32242 -3.96786 1.04394
H -149.29139 -4.02784 -0.71991
C -150.06434 -6.47992 0.24176
H -151.49618 -5.20701 -0.72658
H -151.54207 -5.14115 1.03708
H -149.39774 -6.57328 -0.62163
H -150.73337 -7.34608 0.24934
H -149.45524 -6.51355 1.15082
C -136.69131 0.21943 -0.00160
C -137.12789 1.51706 -0.05525
C -138.56784 1.64799 -0.06086
H -136.43076 2.34505 -0.08942
S -137.98350 -0.86899 0.04351
C -139.18395 0.38757 -0.00891
C -139.26592 2.99623 -0.11591
C -138.33384 4.21413 -0.18106
H -139.89615 3.09769 0.77579
H -139.91270 3.01745 -1.00117
C -139.10752 5.53186 -0.22703
H -137.69562 4.14424 -1.07101
H -137.67219 4.22204 0.69431
C -138.15852 6.71953 -0.29951
H -139.73685 5.62723 0.66518
H -139.77127 5.54685 -1.09896
H -137.49540 6.74566 0.57143
H -138.72172 7.65733 -0.32590
H -137.53756 6.67057 -1.20005
C -140.59465 -0.00909 0.00674
S -141.90467 1.09837 -0.02545
C -141.09877 -1.30540 0.04965
C -142.53179 -1.39941 0.05321
H -140.45829 -2.17824 0.07709
C -143.07981 -0.13382 0.01309
C -143.35419 -2.66320 0.09188
C -142.54797 -3.96393 0.14939
H -143.99854 -2.67996 -0.79672
H -144.01713 -2.61475 0.96559
C -143.45981 -5.19141 0.17284
H -141.91243 -3.96786 1.04394
H -141.88140 -4.02784 -0.71991
C -142.65435 -6.47992 0.24176
H -144.08619 -5.20701 -0.72658
H -144.13208 -5.14115 1.03708
H -141.98775 -6.57328 -0.62163
H -143.32338 -7.34608 0.24934
H -142.04525 -6.51355 1.15082
C -129.28132 0.21943 -0.00160
C -129.71790 1.51706 -0.05525
C -131.15785 1.64799 -0.06086
H -129.02077 2.34505 -0.08942
S -130.57351 -0.86899 0.04351
C -131.77396 0.38757 -0.00891
C -131.85593 2.99623 -0.11591
C -130.92385 4.21413 -0.18106
H -132.48616 3.09769 0.77579
H -132.50271 3.01745 -1.00117
C -131.69753 5.53186 -0.22703
H -130.28563 4.14424 -1.07101
H -130.26220 4.22204 0.69431
C -130.74853 6.71953 -0.29951
H -132.32686 5.62723 0.66518
H -132.36128 5.54685 -1.09896
H -130.08541 6.74566 0.57143
H -131.31173 7.65733 -0.32590
H -130.12757 6.67057 -1.20005
C -133.18466 -0.00909 0.00674
S -134.49468 1.09837 -0.02545
C -133.68878 -1.30540 0.04965
C -135.12180 -1.39941 0.05321
H -133.04830 -2.17824 0.07709
C -135.66982 -0.13382 0.01309
C -135.94420 -2.66320 0.09188
C -135.13798 -3.96393 0.14939
H -136.58855 -2.67996 -0.79672
H -136.60714 -2.61475 0.96559
C -136.04982 -5.19141 0.17284
H -134.50244 -3.96786 1.04394
H -134.47141 -4.02784 -0.71991
C -135.24436 -6.47992 0.24176
H -136.67620 -5.20701 -0.72658
H -136.72209 -5.14115 1.03708
H -134.57776 -6.57328 -0.62163
H -135.91339 -7.34608 0.24934
H -134.63526 -6.51355 1.15082
C -122.51982 0.39912 -0.11982
C -122.83884 1.69056 -0.44451
C -124.26753 1.77532 -0.46391
H -122.12542 2.47740 -0.64363
O -123.64355 -0.32426 0.06383
C -124.72717 0.49715 -0.14161
C -125.09430 2.99488 -0.76824
C -124.25489 4.23323 -1.11299
H -125.72606 3.21852 0.10042
H -125.76269 2.76937 -1.60853
C -125.10562 5.46683 -1.40812
H -123.62515 4.01762 -1.98596
H -123.57811 4.46196 -0.27955
C -124.22396 6.66190 -1.74627
H -125.72610 5.71095 -0.53855
H -125.78009 5.26630 -2.24805
H -123.55073 6.90038 -0.91602
H -124.83676 7.54497 -1.95069
H -123.61265 6.45995 -2.63219
C -126.06093 -0.01912 -0.01124
O -127.20971 0.70407 -0.19354
C -128.25983 -0.13382 0.01309
C -126.41215 -1.31867 0.31417
C -127.83102 -1.40681 0.33144
H -125.70177 -2.11005 0.51302
C -128.68841 -2.60039 0.62149
C -127.90026 -3.86542 0.98246
H -129.31278 -2.80303 -0.25787
H -129.36793 -2.35194 1.44656
C -128.81698 -5.05865 1.25121
H -127.28411 -3.67591 1.87082
H -127.21289 -4.11950 0.16537
C -128.01345 -6.30015 1.61088
H -127.42121 -6.13542 2.51692
H -127.32989 -6.57422 0.80062
H -128.68197 -7.14753 1.79186
H -129.42515 -5.26891 0.36399
H -129.50508 -4.82494 2.07153
C -115.20114 0.21943 -0.00160
C -115.63772 1.51706 -0.05525
C -117.07767 1.64799 -0.06086
H -114.94059 2.34505 -0.08942
S -116.49333 -0.86899 0.04351
C -117.69378 0.38757 -0.00891
C -117.77575 2.99623 -0.11591
C -116.84367 4.21413 -0.18106
H -118.40598 3.09769 0.77579
H -118.42253 3.01745 -1.00117
C -117.61735 5.53186 -0.22703
H -116.20545 4.14424 -1.07101
H -116.18202 4.22204 0.69431
C -116.66835 6.71953 -0.29951
H -118.24668 5.62723 0.66518
H -118.28110 5.54685 -1.09896
H -116.00523 6.74566 0.57143
H -117.23155 7.65733 -0.32590
H -116.04739 6.67057 -1.20005
C -119.10448 -0.00909 0.00674
S -120.41450 1.09837 -0.02545
C -119.60860 -1.30540 0.04965
C -121.04162 -1.39941 0.05321
H -118.96812 -2.17824 0.07709
C -121.58964 -0.13382 0.01309
C -121.86402 -2.66320 0.09188
C -121.05780 -3.96393 0.14939
H -122.50837 -2.67996 -0.79672
H -122.52696 -2.61475 0.96559
C -121.96964 -5.19141 0.17284
H -120.42226 -3.96786 1.04394
H -120.39123 -4.02784 -0.71991
C -121.16418 -6.47992 0.24176
H -122.59602 -5.20701 -0.72658
H -122.64191 -5.14115 1.03708
H -120.49758 -6.57328 -0.62163
H -121.83321 -7.34608 0.24934
H -120.55508 -6.51355 1.15082
C -107.79115 0.21943 -0.00160
C -108.22773 1.51706 -0.05525
C -109.66768 1.64799 -0.06086
H -107.53060 2.34505 -0.08942
S -109.08334 -0.86899 0.04351
C -110.28379 0.38757 -0.00891
C -110.36576 2.99623 -0.11591
C -109.43368 4.21413 -0.18106
H -110.99599 3.09769 0.77579
H -111.01254 3.01745 -1.00117
C -110.20736 5.53186 -0.22703
H -108.79546 4.14424 -1.07101
H -108.77203 4.22204 0.69431
C -109.25836 6.71953 -0.29951
H -110.83669 5.62723 0.66518
H -110.87111 5.54685 -1.09896
H -108.59524 6.74566 0.57143
H -109.82156 7.65733 -0.32590
H -108.63740 6.67057 -1.20005
C -111.69449 -0.00909 0.00674
S -113.00451 1.09837 -0.02545
C -112.19861 -1.30540 0.04965
C -113.63163 -1.39941 0.05321
H -111.55813 -2.17824 0.07709
C -114.17965 -0.13382 0.01309
C -114.45403 -2.66320 0.09188
C -113.64781 -3.96393 0.14939
H -115.09838 -2.67996 -0.79672
H -115.11697 -2.61475 0.96559
C -114.55965 -5.19141 0.17284
H -113.01227 -3.96786 1.04394
H -112.98124 -4.02784 -0.71991
C -113.75419 -6.47992 0.24176
H -115.18603 -5.20701 -0.72658
H -115.23192 -5.14115 1.03708
H -113.08759 -6.57328 -0.62163
H -114.42322 -7.34608 0.24934
H -113.14509 -6.51355 1.15082
C -100.38116 0.21943 -0.00160
C -100.81774 1.51706 -0.05525
C -102.25769 1.64799 -0.06086
H -100.12061 2.34505 -0.08942
S -101.67335 -0.86899 0.04351
C -102.87380 0.38757 -0.00891
C -102.95577 2.99623 -0.11591
C -102.02369 4.21413 -0.18106
H -103.58600 3.09769 0.77579
H -103.60255 3.01745 -1.00117
C -102.79737 5.53186 -0.22703
H -101.38547 4.14424 -1.07101
H -101.36204 4.22204 0.69431
C -101.84837 6.71953 -0.29951
H -103.42670 5.62723 0.66518
H -103.46112 5.54685 -1.09896
H -101.18525 6.74566 0.57143
H -102.41157 7.65733 -0.32590
H -101.22741 6.67057 -1.20005
C -104.28450 -0.00909 0.00674
S -105.59452 1.09837 -0.02545
C -104.78862 -1.30540 0.04965
C -106.22164 -1.39941 0.05321
H -104.14814 -2.17824 0.07709
C -106.76966 -0.13382 0.01309
C -107.04404 -2.66320 0.09188
C -106.23782 -3.96393 0.14939
H -107.68839 -2.67996 -0.79672
H -107.70698 -2.61475 0.96559
C -107.14966 -5.19141 0.17284
H -105.60228 -3.96786 1.04394
H -105.57125 -4.02784 -0.71991
C -106.34420 -6.47992 0.24176
H -107.77604 -5.20701 -0.72658
H -107.82193 -5.14115 1.03708
H -105.67760 -6.57328 -0.62163
H -107.01323 -7.34608 0.24934
H -105.73510 -6.51355 1.15082
C -92.97117 0.21943 -0.00160
C -93.40775 1.51706 -0.05525
C -94.84770 1.64799 -0.06086
H -92.71062 2.34505 -0.08942
S -94.26336 -0.86899 0.04351
C -95.46381 0.38757 -0.00891
C -95.54578 2.99623 -0.11591
C -94.61370 4.21413 -0.18106
H -96.17601 3.09769 0.77579
H -96.19256 3.01745 -1.00117
C -95.38738 5.53186 -0.22703
H -93.97548 4.14424 -1.07101
H -93.95205 4.22204 0.69431
C -94.43838 6.71953 -0.29951
H -96.01671 5.62723 0.66518
H -96.05113 5.54685 -1.09896
H -93.77526 6.74566 0.57143
H -95.00158 7.65733 -0.32590
H -93.81742 6.67057 -1.20005
C -96.87451 -0.00909 0.00674
S -98.18453 1.09837 -0.02545
C -97.37863 -1.30540 0.04965
C -98.81165 -1.39941 0.05321
H -96.73815 -2.17824 0.07709
C -99.35967 -0.13382 0.01309
C -99.63405 -2.66320 0.09188
C -98.82783 -3.96393 0.14939
H -100.27840 -2.67996 -0.79672
H -100.29699 -2.61475 0.96559
C -99.73967 -5.19141 0.17284
H -98.19229 -3.96786 1.04394
H -98.16126 -4.02784 -0.71991
C -98.93421 -6.47992 0.24176
H -100.36605 -5.20701 -0.72658
H -100.41194 -5.14115 1.03708
H -98.26761 -6.57328 -0.62163
H -99.60324 -7.34608 0.24934
H -98.32511 -6.51355 1.15082
C -85.56118 0.21943 -0.00160
C -85.99776 1.51706 -0.05525
C -87.43771 1.64799 -0.06086
H -85.30063 2.34505 -0.08942
S -86.85337 -0.86899 0.04351
C -88.05382 0.38757 -0.00891
C -88.13579 2.99623 -0.11591
C -87.20371 4.21413 -0.18106
H -88.76602 3.09769 0.77579
H -88.78257 3.01745 -1.00117
C -87.97739 5.53186 -0.22703
H -86.56549 4.14424 -1.07101
H -86.54206 4.22204 0.69431
C -87.02839 6.71953 -0.29951
H -88.60672 5.62723 0.66518
H -88.64114 5.54685 -1.09896