! RKS B3LYP 6-31+G** NormalSCF Opt NOSOSCF CHELPG PAL8

*xyz 0 1
C -1.70534 -0.68263 0.02216
C -2.36340 0.52802 -0.02091
C -3.79460 0.39768 -0.00944
H -1.83313 1.47211 -0.05416
S -2.80022 -1.98678 0.06698
C -4.15605 -0.94289 0.03783
C -4.79131 1.53202 -0.03432
C -4.19867 2.93876 -0.13928
H -5.39729 1.47005 0.87906
H -5.47073 1.37265 -0.88189
C -5.30135 3.99951 -0.12137
H -3.61669 3.03050 -1.06486
H -3.51019 3.11989 0.69538
C -4.73173 5.40420 -0.23490
H -5.87639 3.92047 0.80874
H -5.99890 3.82671 -0.94919
H -4.04743 5.61881 0.59206
H -5.53912 6.14283 -0.20776
H -4.18652 5.53151 -1.17544
C 2.21191 -0.68263 0.02216
C 1.55385 0.52802 -0.02091
C 0.12265 0.39768 -0.00944
H 2.08412 1.47211 -0.05416
S 1.11703 -1.98678 0.06698
C -0.23880 -0.94289 0.03783
C -0.87406 1.53202 -0.03432
C -0.28142 2.93876 -0.13928
H -1.48004 1.47005 0.87906
H -1.55348 1.37265 -0.88189
C -1.38410 3.99951 -0.12137
H 0.30056 3.03050 -1.06486
H 0.40706 3.11989 0.69538
C -0.81448 5.40420 -0.23490
H -1.95914 3.92047 0.80874
H -2.08165 3.82671 -0.94919
H -0.13018 5.61881 0.59206
H -1.62187 6.14283 -0.20776
H -0.26927 5.53151 -1.17544
C 6.12916 -0.68263 0.02216
C 5.47110 0.52802 -0.02091
C 4.03990 0.39768 -0.00944
H 6.00137 1.47211 -0.05416
S 5.03428 -1.98678 0.06698
C 3.67845 -0.94289 0.03783
C 3.04319 1.53202 -0.03432
C 3.63583 2.93876 -0.13928
H 2.43721 1.47005 0.87906
H 2.36377 1.37265 -0.88189
C 2.53315 3.99951 -0.12137
H 4.21781 3.03050 -1.06486
H 4.32431 3.11989 0.69538
C 3.10277 5.40420 -0.23490
H 1.95811 3.92047 0.80874
H 1.83560 3.82671 -0.94919
H 3.78707 5.61881 0.59206
H 2.29538 6.14283 -0.20776
H 3.64798 5.53151 -1.17544
C 10.04641 -0.68263 0.02216
C 9.38835 0.52802 -0.02091
C 7.95715 0.39768 -0.00944
H 9.91862 1.47211 -0.05416
S 8.95153 -1.98678 0.06698
C 7.59570 -0.94289 0.03783
C 6.96044 1.53202 -0.03432
C 7.55308 2.93876 -0.13928
H 6.35446 1.47005 0.87906
H 6.28102 1.37265 -0.88189
C 6.45040 3.99951 -0.12137
H 8.13506 3.03050 -1.06486
H 8.24156 3.11989 0.69538
C 7.02002 5.40420 -0.23490
H 5.87536 3.92047 0.80874
H 5.75285 3.82671 -0.94919
H 7.70432 5.61881 0.59206
H 6.21263 6.14283 -0.20776
H 7.56523 5.53151 -1.17544
C 13.96366 -0.68263 0.02216
C 13.30560 0.52802 -0.02091
C 11.87440 0.39768 -0.00944
H 13.83587 1.47211 -0.05416
S 12.86878 -1.98678 0.06698
C 11.51295 -0.94289 0.03783
C 10.87769 1.53202 -0.03432
C 11.47033 2.93876 -0.13928
H 10.27171 1.47005 0.87906
H 10.19827 1.37265 -0.88189
C 10.36765 3.99951 -0.12137
H 12.05231 3.03050 -1.06486
H 12.15881 3.11989 0.69538
C 10.93727 5.40420 -0.23490
H 9.79261 3.92047 0.80874
H 9.67010 3.82671 -0.94919
H 11.62157 5.61881 0.59206
H 10.12988 6.14283 -0.20776
H 11.48248 5.53151 -1.17544
*