! RKS B3LYP 6-31+G** NormalSCF Opt NOSOSCF CHELPG PAL8

*xyz 0 1
H -36.15956 0.06714 0.02024
C -28.77020 0.29212 0.01812
C -29.20865 1.59431 -0.06351
C -30.63202 1.76697 -0.06171
H -28.51744 2.42490 -0.11883
S -30.08137 -0.74523 0.08747
C -31.25313 0.52012 0.00102
C -31.25780 3.14721 -0.12594
C -30.22761 4.29694 -0.18235
H -31.88552 3.28728 0.76093
H -31.89291 3.20421 -1.01654
C -30.85974 5.68312 -0.23325
H -29.58763 4.17551 -1.06708
H -29.57189 4.24945 0.69802
C -29.78637 6.76413 -0.29620
H -31.48009 5.84138 0.65520
H -31.50713 5.76485 -1.11257
H -29.13192 6.72265 0.58130
H -30.24551 7.75656 -0.32990
H -29.16195 6.64872 -1.18883
C -32.64137 0.10101 0.01079
S -33.98446 1.15190 -0.01367
C -33.07773 -1.21593 0.04120
C -34.49086 -1.38510 0.05311
H -32.39670 -2.05773 0.05799
C -35.10056 -0.14668 0.02267
C -35.20379 -2.71174 0.09084
C -34.27965 -3.93963 0.14979
H -35.83809 -2.78460 -0.80072
H -35.86425 -2.72067 0.96626
C -35.07317 -5.24445 0.18200
H -33.64033 -3.88516 1.04095
H -33.61191 -3.94915 -0.72188
C -34.15700 -6.45785 0.24590
H -35.70141 -5.31632 -0.71285
H -35.73880 -5.25122 1.05226
H -33.49408 -6.49859 -0.62451
H -34.74988 -7.37779 0.26339
H -33.53710 -6.43717 1.14813
C -21.15092 0.25969 0.03040
C -21.58848 1.55975 -0.07795
C -23.00398 1.70860 -0.06261
H -20.90901 2.39886 -0.15070
S -22.43159 -0.79941 0.11603
C -23.58770 0.44466 0.01433
C -23.66248 3.07443 -0.12852
C -22.67585 4.25787 -0.18711
H -24.28928 3.20195 0.76133
H -24.30173 3.11476 -1.01747
C -23.37396 5.61425 -0.23250
H -22.03627 4.16313 -1.07468
H -22.01613 4.23441 0.69072
C -22.35721 6.74707 -0.29630
H -23.99978 5.74096 0.65762
H -24.02895 5.66702 -1.10884
H -21.70029 6.73692 0.58001
H -22.86615 7.71514 -0.32739
H -21.73080 6.66401 -1.19087
C -24.94810 0.00634 0.03342
S -26.21945 1.08759 0.06098
C -25.40949 -1.29622 0.04542
C -26.83131 -1.41887 0.06570
H -24.75011 -2.15552 0.04161
C -27.40266 -0.14779 0.04440
C -27.54421 -2.75315 0.09265
C -26.65393 -4.00554 0.14680
H -28.17116 -2.82442 -0.80377
H -28.19390 -2.77335 0.97530
C -27.50944 -5.27453 0.17978
H -26.01335 -3.97634 1.03762
H -25.99153 -4.03882 -0.72758
C -26.66416 -6.53645 0.24632
H -28.14173 -5.31528 -0.71466
H -28.17732 -5.24697 1.04848
H -26.00431 -6.61642 -0.62325
H -27.31036 -7.42026 0.26325
H -26.04765 -6.55120 1.15061
C -13.63002 0.27239 0.03276
C -14.06644 1.57117 -0.09449
C -15.48004 1.70809 -0.06984
H -13.39184 2.41350 -0.17587
S -14.89231 -0.79654 0.12117
C -16.04199 0.43614 0.01708
C -16.16007 3.06355 -0.13364
C -15.19757 4.26433 -0.19406
H -16.78360 3.18320 0.75983
H -16.80590 3.09328 -1.01858
C -15.92698 5.60515 -0.23466
H -14.55939 4.18338 -1.08356
H -14.53546 4.25237 0.68200
C -14.93683 6.76072 -0.29785
H -16.55429 5.71615 0.65675
H -16.58548 5.64531 -1.10922
H -14.27935 6.76391 0.57803
H -15.46759 7.71707 -0.32714
H -14.30982 6.69263 -1.19315
C -17.38304 -0.02563 0.05226
S -18.64108 1.05291 0.15969
C -17.82949 -1.33430 0.04172
C -19.24344 -1.45766 0.07682
H -17.16977 -2.19260 0.00898
C -19.80050 -0.18284 0.07338
C -19.97130 -2.78191 0.08866
C -19.11454 -4.05233 0.14475
H -20.59428 -2.83876 -0.81190
H -20.62482 -2.79803 0.96901
C -20.01745 -5.28959 0.17784
H -18.47608 -4.04044 1.03699
H -18.45359 -4.10487 -0.72911
C -19.22299 -6.58216 0.24685
H -20.65130 -5.30708 -0.71665
H -20.68621 -5.23617 1.04518
H -18.56597 -6.68754 -0.62184
H -19.90385 -7.43957 0.26333
H -18.60996 -6.61920 1.15262
C -6.16707 0.28036 0.02633
C -6.60134 1.57939 -0.10677
C -8.01385 1.71192 -0.07768
H -5.92823 2.42292 -0.18723
S -7.42138 -0.79351 0.09848
C -8.56583 0.43691 0.01400
C -8.70459 3.06205 -0.13656
C -7.75438 4.27065 -0.19914
H -9.32333 3.17810 0.76074
H -9.35688 3.08684 -1.01720
C -8.49927 5.60335 -0.23646
H -7.11779 4.19625 -1.09005
H -7.09071 4.26420 0.67569
C -7.52182 6.76927 -0.29895
H -9.12699 5.70631 0.65578
H -9.15964 5.63772 -1.10995
H -6.86427 6.77819 0.57679
H -8.06257 7.72000 -0.32717
H -6.89458 6.70814 -1.19453
C -9.89739 -0.03302 0.06954
S -11.14223 1.04542 0.25195
C -10.34029 -1.34303 0.04309
C -11.75016 -1.46186 0.08755
H -9.68381 -2.20243 -0.01317
C -12.29277 -0.18128 0.09637
C -12.48907 -2.78067 0.08535
C -11.65153 -4.06192 0.14331
H -13.10729 -2.82815 -0.81921
H -13.14702 -2.79583 0.96275
C -12.57663 -5.28384 0.17624
H -11.01495 -4.05901 1.03670
H -10.99115 -4.12464 -0.72994
C -11.80536 -6.58987 0.24648
H -13.21086 -5.29089 -0.71828
H -13.24550 -5.21890 1.04295
H -11.14975 -6.70662 -0.62172
H -12.50107 -7.43530 0.26275
H -11.19409 -6.63680 1.15291
C 1.26659 0.28400 0.02127
C 0.83270 1.58316 -0.11252
C -0.57954 1.71328 -0.08169
H 1.50489 2.42755 -0.19098
S 0.01602 -0.79261 0.08146
C -1.12645 0.43674 0.01222
C -1.27578 3.06078 -0.13767
C -0.33130 4.27301 -0.20157
H -1.89186 3.17526 0.76162
H -1.93161 3.08305 -1.01591
C -1.08270 5.60221 -0.23734
H 0.30447 4.20140 -1.09314
H 0.33311 4.26903 0.67268
C -0.11038 6.77228 -0.29944
H -1.71051 5.70182 0.65528
H -1.74386 5.63430 -1.11036
H 0.54717 6.78339 0.57627
H -0.65504 7.72077 -0.32719
H 0.51699 6.71393 -1.19510
C -2.45323 -0.03739 0.08058
S -3.69097 1.03914 0.30618
C -2.89478 -1.34794 0.04605
C -4.30276 -1.46432 0.09385
H -2.24017 -2.20775 -0.02265
C -4.83734 -0.18051 0.10678
C -5.04755 -2.78032 0.08373
C -4.21941 -4.06666 0.14343
H -5.66192 -2.82378 -0.82371
H -5.70923 -2.79449 0.95862
C -5.15435 -5.28163 0.17586
H -3.58419 -4.06774 1.03762
H -3.55899 -4.13416 -0.72928
C -4.39296 -6.59326 0.24648
H -5.78859 -5.28407 -0.71878
H -5.82334 -5.21187 1.04221
H -3.73797 -6.71461 -0.62152
H -5.09474 -7.43366 0.26257
H -3.78243 -6.64435 1.15315
C 8.68926 0.28559 0.01897
C 8.25474 1.58481 -0.11375
C 6.84238 1.71358 -0.08261
H 8.92614 2.42987 -0.19112
S 7.43994 -0.79217 0.07534
C 6.29773 0.43632 0.01211
C 6.14321 3.05975 -0.13780
C 7.08471 4.27384 -0.20237
H 5.52795 3.17352 0.76214
H 5.48603 3.08055 -1.01517
C 6.33016 5.60135 -0.23766
H 7.72015 4.20348 -1.09421
H 7.74937 4.27124 0.67166
C 7.30011 6.77335 -0.29964
H 5.70224 5.69951 0.65508
H 5.66869 5.63229 -1.11050
H 7.95766 6.78549 0.57606
H 6.75369 7.72081 -0.32721
H 7.92754 6.71623 -1.19532
C 4.97274 -0.03952 0.08529
S 3.73778 1.03618 0.32719
C 4.53146 -1.35023 0.04774
C 3.12411 -1.46535 0.09621
H 5.18513 -2.21031 -0.02544
C 2.59307 -0.18005 0.10974
C 2.37632 -2.78001 0.08317
C 3.19996 -4.06872 0.14370
H 1.76367 -2.82202 -0.82555
H 1.71292 -2.79324 0.95693
C 2.26060 -5.28055 0.17582
H 3.83450 -4.07162 1.03826
H 3.86035 -4.13837 -0.72878
C 3.01779 -6.59455 0.24652
H 1.62639 -5.28098 -0.71889
H 1.59153 -5.20876 1.04199
H 3.67252 -6.71776 -0.62140
H 2.31351 -7.43285 0.26251
H 3.62803 -6.64738 1.15328
C 16.11301 0.28594 0.01787
C 15.67650 1.58516 -0.11159
C 14.26360 1.71276 -0.08102
H 16.34673 2.43118 -0.18843
S 14.86325 -0.79212 0.07754
C 13.71984 0.43511 0.01370
C 13.56201 3.05792 -0.13701
C 14.50069 4.27379 -0.20221
H 12.94645 3.17120 0.76281
H 12.90469 3.07715 -1.01439
C 13.74307 5.59969 -0.23766
H 15.13600 4.20440 -1.09419
H 15.16540 4.27279 0.67172
C 14.71060 6.77364 -0.29973
H 13.11489 5.69670 0.65504
H 13.08145 5.62923 -1.11047
H 15.36817 6.78701 0.57594
H 14.16238 7.72005 -0.32727
H 15.33808 6.71765 -1.19545
C 12.39464 -0.04090 0.08632
S 11.15996 1.03545 0.32820
C 11.95248 -1.35141 0.04824
C 10.54483 -1.46544 0.09595
H 12.60555 -2.21191 -0.02481
C 10.01505 -0.17952 0.10877
C 9.79490 -2.77921 0.08292
C 10.61555 -4.06949 0.14375
H 9.18236 -2.82055 -0.82596
H 9.13121 -2.79128 0.95656
C 9.67344 -5.27937 0.17578
H 11.24977 -4.07358 1.03847
H 11.27580 -4.14050 -0.72867
C 10.42809 -6.59482 0.24653
H 9.03921 -5.27861 -0.71893
H 9.00437 -5.20632 1.04187
H 11.08265 -6.71914 -0.62135
H 9.72231 -7.43187 0.26247
H 11.03816 -6.64870 1.15334
C 23.55006 0.28678 0.01571
C 23.10804 1.58591 -0.10177
C 21.69413 1.71081 -0.07244
H 23.77509 2.43426 -0.17977
S 22.29873 -0.79108 0.09960
C 21.15127 0.43260 0.02227
C 20.98871 3.05418 -0.13330
C 21.92248 4.27315 -0.20035
H 20.37099 3.16747 0.76511
H 20.33299 3.06958 -1.01208
C 21.15910 5.59589 -0.23726
H 22.55763 4.20491 -1.09249
H 22.58723 4.27583 0.67342
C 22.12180 6.77368 -0.29988
H 20.53015 5.69111 0.65514
H 20.49746 5.62213 -1.11021
H 22.77939 6.78983 0.57571
H 21.56987 7.71793 -0.32762
H 22.74931 6.71978 -1.19569
C 19.82392 -0.04271 0.08624
S 18.58701 1.03616 0.31032
C 19.37939 -1.35255 0.04810
C 17.97028 -1.46496 0.09262
H 20.03196 -2.21379 -0.02022
C 17.44022 -0.17889 0.10302
C 17.21729 -2.77743 0.08238
C 18.03374 -4.06993 0.14338
H 16.60330 -2.81812 -0.82561
H 16.55461 -2.78707 0.95690
C 17.08770 -5.27699 0.17561
H 18.66769 -4.07572 1.03824
H 18.69368 -4.14293 -0.72903
C 17.83850 -6.59461 0.24652
H 16.45334 -5.27458 -0.71905
H 16.41872 -5.20195 1.04165
H 18.49280 -6.72072 -0.62130
H 17.13045 -7.42974 0.26240
H 18.44831 -6.65008 1.15340
C 31.01824 0.28286 0.12813
C 30.58050 1.57928 -0.03670
C 29.16189 1.70385 -0.05122
H 31.25164 2.42433 -0.11978
S 29.75825 -0.79242 0.18662
C 28.61157 0.42704 0.03722
C 28.44957 3.04320 -0.14037
C 29.37029 4.27012 -0.20321
H 27.81656 3.15867 0.74767
H 27.80639 3.04690 -1.02868
C 28.58946 5.58389 -0.24181
H 30.00947 4.20722 -1.09255
H 30.03043 4.28077 0.67356
C 29.53641 6.77416 -0.30190
H 27.95752 5.67137 0.64958
H 27.92798 5.60260 -1.11523
H 30.19296 6.79721 0.57426
H 28.97245 7.71139 -0.32835
H 30.16478 6.72949 -1.19749
C 27.27733 -0.04368 0.06071
S 26.03518 1.04288 0.22052
C 26.82624 -1.35205 0.02735
C 25.41409 -1.46143 0.07161
H 27.47723 -2.21574 -0.02236
C 24.88238 -0.17557 0.07492
C 24.65558 -2.77171 0.07916
C 25.46353 -4.06886 0.14087
H 24.03306 -2.81443 -0.82308
H 24.00040 -2.77313 0.95946
C 24.50888 -5.26978 0.17532
H 26.09762 -4.07743 1.03552
H 26.12209 -4.14723 -0.73190
C 25.25047 -6.59259 0.24672
H 23.87369 -5.26421 -0.71881
H 23.84073 -5.18961 1.04162
H 25.90392 -6.72337 -0.62103
H 24.53680 -7.42297 0.26273
H 25.85971 -6.65194 1.15371
C 38.32695 0.22775 -0.31902
C 37.97837 1.54721 -0.17049
C 36.57372 1.72759 -0.26789
H 38.69415 2.31854 0.08927
S 37.10754 -0.67430 -1.00509
C 36.00374 0.45662 -0.36513
C 35.89108 3.06513 -0.09883
C 36.82470 4.27864 -0.20614
H 35.39965 3.10445 0.87972
H 35.12183 3.15390 -0.87615
C 36.04807 5.59433 -0.22064
H 37.43140 4.20882 -1.11772
H 37.51862 4.28271 0.64436
C 36.99155 6.78523 -0.29293
H 35.43022 5.67584 0.68088
H 35.37240 5.61716 -1.08334
H 37.65455 6.81292 0.57795
H 36.42333 7.71996 -0.31775
H 37.61213 6.73991 -1.19384
C 34.71660 -0.03637 -0.05166
S 33.52287 1.00423 0.47587
C 34.29559 -1.35247 0.01496
C 32.88680 -1.46819 0.15810
H 34.95177 -2.20346 -0.11719
C 32.35080 -0.18368 0.21776
C 32.12156 -2.77096 0.13417
C 32.91812 -4.07323 0.17473
H 31.50625 -2.79015 -0.77433
H 31.45838 -2.78439 1.00801
C 31.94751 -5.26146 0.18862
H 33.55243 -4.10072 1.06853
H 33.57490 -4.14485 -0.69995
C 32.67069 -6.59403 0.24795
H 31.31735 -5.23594 -0.70895
H 31.27494 -5.18282 1.05170
H 33.32353 -6.72454 -0.62020
H 31.94549 -7.41437 0.25477
H 33.27735 -6.66974 1.15534
C 45.07805 0.42961 -0.09463
C 44.75878 1.72132 -0.43240
C 43.34795 1.79164 -0.43153
H 45.47394 2.50072 -0.65799
O 43.99952 -0.29551 0.12896
C 42.95521 0.50465 -0.08328
C 42.51372 2.99664 -0.75461
C 43.36051 4.23414 -1.10256
H 41.87529 3.22651 0.10674
H 41.85632 2.76107 -1.60005
C 42.52533 5.47403 -1.40875
H 43.99477 4.01170 -1.97120
H 44.03601 4.46350 -0.26758
C 43.42340 6.65908 -1.74315
H 41.90105 5.72701 -0.54480
H 41.85719 5.27686 -2.25413
H 44.09187 6.89423 -0.90791
H 42.82188 7.54774 -1.95646
H 44.04148 6.44826 -2.62247
C 41.71216 -0.10083 0.04761
O 40.60269 0.57459 -0.19261
C 39.59365 -0.29627 -0.07136
C 41.44013 -1.41130 0.37901
C 40.03810 -1.55427 0.32020
H 42.18065 -2.16192 0.62030
C 39.22476 -2.77517 0.62077
C 40.02327 -4.01018 1.05169
H 38.65259 -3.04320 -0.27433
H 38.50480 -2.52577 1.41077
C 39.08556 -5.19091 1.31404
H 40.60236 -3.79185 1.95778
H 40.74187 -4.28190 0.26806
C 39.84853 -6.45314 1.67957
H 40.44086 -6.30651 2.58798
H 40.52338 -6.75176 0.87110
H 39.14959 -7.27659 1.85828
H 38.47885 -5.38803 0.42237
H 38.39383 -4.94004 2.12669
C 51.80562 0.41894 -0.12432
C 51.50039 1.71902 -0.44917
C 50.09377 1.79325 -0.47136
H 52.22156 2.50140 -0.64116
O 50.72456 -0.31269 0.05162
C 49.69544 0.50218 -0.15213
C 49.25401 2.99872 -0.76972
C 50.08648 4.24327 -1.11180
H 48.62237 3.21537 0.10047
H 48.58803 2.76956 -1.61052
C 49.22878 5.46961 -1.40997
H 50.72150 4.03213 -1.98235
H 50.75968 4.47668 -0.27635
C 50.10476 6.66917 -1.74601
H 48.60423 5.70942 -0.54225
H 48.55887 5.26311 -2.25195
H 50.77250 6.91329 -0.91292
H 49.48725 7.54763 -1.95528
H 50.72206 6.46912 -2.62827
C 48.44380 -0.06864 -0.00885
O 47.36536 0.66989 -0.18682
C 46.33292 -0.13956 0.02595
C 48.12770 -1.37030 0.31571
C 46.72079 -1.43385 0.33857
H 48.84005 -2.16058 0.50922
C 45.84334 -2.61236 0.62847
C 46.60115 -3.89480 0.98696
H 45.21509 -2.80351 -0.25082
H 45.17189 -2.35573 1.45749
C 45.64454 -5.05658 1.25567
H 47.22259 -3.72257 1.87503
H 47.28006 -4.16803 0.16913
C 46.40224 -6.32432 1.61891
H 46.99919 -6.17841 2.52495
H 47.07535 -6.62502 0.80952
H 45.70258 -7.14577 1.80172
H 45.03053 -5.24633 0.36768
H 44.96264 -4.79759 2.07381
C 58.50763 0.41956 -0.12491
C 58.19839 1.71974 -0.45056
C 56.79201 1.78838 -0.46763
H 58.91635 2.50366 -0.64553
O 57.43175 -0.31520 0.05576
C 56.40189 0.49531 -0.14323
C 55.94468 2.98910 -0.76587
C 56.76894 4.23851 -1.11016
H 55.31269 3.20299 0.10481
H 55.27866 2.75574 -1.60561
C 55.90412 5.46041 -1.40740
H 57.40338 4.03059 -1.98186
H 57.44229 4.47595 -0.27604
C 56.77341 6.66462 -1.74475
H 55.27938 5.69728 -0.53899
H 55.23413 5.25054 -2.24851
H 57.44105 6.91221 -0.91259
H 56.15125 7.54001 -1.95322
H 57.39053 6.46773 -2.62785
C 55.15720 -0.08142 0.00552
O 54.08291 0.65794 -0.17325
C 53.05239 -0.15278 0.02367
C 54.84102 -1.38416 0.32916
C 53.43419 -1.44661 0.34429
H 55.55233 -2.17494 0.52284
C 52.54926 -2.62049 0.62907
C 53.29657 -3.90765 0.99068
H 51.92358 -2.80804 -0.25285
H 51.87507 -2.35970 1.45480
C 52.32942 -5.06156 1.25691
H 53.91637 -3.73970 1.88064
H 53.97576 -4.18613 0.17495
C 53.07521 -6.33573 1.62179
H 53.67120 -6.19494 2.52925
H 53.74750 -6.64206 0.81387
H 52.36805 -7.15112 1.80288
H 51.71575 -5.24602 0.36753
H 51.64765 -4.79697 2.07342
C 65.19774 0.42172 -0.12559
C 64.88642 1.72262 -0.45140
C 63.48020 1.78865 -0.46777
H 65.60289 2.50734 -0.64654
O 64.12365 -0.31419 0.05530
C 63.09346 0.49385 -0.14302
C 62.62815 2.98640 -0.76517
C 63.44730 4.23865 -1.11020
H 61.99596 3.19819 0.10597
H 61.96193 2.75094 -1.60427
C 62.57794 5.45768 -1.40667
H 64.08150 4.03285 -1.98251
H 64.12048 4.47832 -0.27666
C 63.44324 6.66458 -1.74470
H 61.95309 5.69262 -0.53779
H 61.90786 5.24578 -2.24723
H 64.11080 6.91406 -0.91305
H 62.81839 7.53816 -1.95267
H 64.06026 6.46948 -2.62827
C 61.85217 -0.08412 0.00578
O 60.78028 0.65632 -0.17423
C 59.75059 -0.15229 0.02224
C 61.53484 -1.38763 0.33001
C 60.12866 -1.44792 0.34403
H 62.24492 -2.17881 0.52452
C 59.23848 -2.61803 0.62839
C 59.97898 -3.90843 0.99085
H 58.61239 -2.80317 -0.25387
H 58.56451 -2.35451 1.45354
C 59.00578 -5.05773 1.25593
H 60.59825 -3.74322 1.88161
H 60.65769 -4.18998 0.17587
C 59.74535 -6.33525 1.62161
H 60.34090 -6.19704 2.52975
H 60.41722 -6.64439 0.81442
H 59.03446 -7.14759 1.80185
H 58.39214 -5.23942 0.36591
H 58.32418 -4.79011 2.07164
C 71.88527 0.42394 -0.12620
C 71.57144 1.72373 -0.45169
C 70.16471 1.78776 -0.46754
H 72.28593 2.51032 -0.64732
O 70.81209 -0.31396 0.05523
C 69.78053 0.49217 -0.14258
C 69.30882 2.98342 -0.76443
C 70.12368 4.23805 -1.11007
H 68.67637 3.19351 0.10702
H 68.64244 2.74623 -1.60300
C 69.25080 5.45489 -1.40595
H 70.75766 4.03395 -1.98288
H 70.79668 4.47953 -0.27697
C 70.11311 6.66384 -1.74449
H 68.62584 5.68843 -0.53675
H 68.58065 5.24152 -2.24612
H 70.78061 6.91473 -0.91322
H 69.48630 7.53610 -1.95210
H 70.73005 6.47008 -2.62840
C 68.53965 -0.08629 0.00637
O 67.46916 0.65568 -0.17407
C 66.43845 -0.15061 0.02176
C 68.22010 -1.38958 0.33055
C 66.81385 -1.44781 0.34401
H 68.92860 -2.18199 0.52542
C 65.91980 -2.61546 0.62779
C 66.65574 -3.90815 0.99081
H 65.29351 -2.79892 -0.25476
H 65.24583 -2.35020 1.45247
C 65.67904 -5.05487 1.25521
H 67.27466 -3.74472 1.88207
H 67.33412 -4.19163 0.17629
C 66.41521 -6.33430 1.62133
H 67.01054 -6.19751 2.52983
H 67.08685 -6.64498 0.81455
H 65.70234 -7.14501 1.80112
H 65.06543 -5.23507 0.36485
H 64.99754 -4.78564 2.07050
C 78.58229 0.42693 -0.12693
C 78.26355 1.72455 -0.45182
C 76.85533 1.78559 -0.46687
H 78.97480 2.51430 -0.64836
O 77.50869 -0.31377 0.05548
C 76.47397 0.48994 -0.14186
C 75.99438 2.97888 -0.76326
C 76.80321 4.23680 -1.10977
H 75.36157 3.18660 0.10860
H 75.32783 2.73921 -1.60110
C 75.92527 5.45047 -1.40483
H 77.43688 4.03510 -1.98329
H 77.47596 4.48086 -0.27731
C 76.78311 6.66246 -1.74411
H 75.30016 5.68196 -0.53515
H 75.25503 5.23494 -2.24441
H 77.45051 6.91547 -0.91340
H 76.15336 7.53274 -1.95117
H 77.39994 6.47072 -2.62855
C 75.23028 -0.08897 0.00704
O 74.16006 0.65525 -0.17414
C 73.12738 -0.14922 0.02130
C 74.90729 -1.39074 0.33082
C 73.50006 -1.44657 0.34365
H 75.61335 -2.18538 0.52632
C 72.60211 -2.61231 0.62703
C 73.33308 -3.90743 0.99065
H 71.97558 -2.79394 -0.25582
H 71.92813 -2.34512 1.45119
C 72.35267 -5.05142 1.25434
H 73.95161 -3.74588 1.88247
H 74.01110 -4.19297 0.17663
C 73.08523 -6.33287 1.62093
H 73.68032 -6.19760 2.52982
H 73.75664 -6.64518 0.81458
H 72.37030 -7.14187 1.80024
H 71.73908 -5.23008 0.36364
H 71.67128 -4.78052 2.06920
C 85.30553 0.43038 -0.12761
C 84.97662 1.72581 -0.45189
C 83.56579 1.78109 -0.46549
H 85.68222 2.52034 -0.64981
O 84.22932 -0.31380 0.05614
C 83.18739 0.48482 -0.14031
C 82.69611 2.96991 -0.76097
C 83.49363 4.23385 -1.10907
H 82.06266 3.17328 0.11166
H 82.02925 2.72568 -1.59747
C 82.60541 5.44099 -1.40242
H 84.12669 4.03687 -1.98395
H 84.16587 4.48297 -0.27786
C 83.45364 6.65935 -1.74329
H 81.98002 5.66809 -0.53172
H 81.93500 5.22083 -2.24074
H 84.12074 6.91701 -0.91378
H 82.81742 7.52523 -1.94913
H 84.07014 6.47200 -2.62889
C 81.93795 -0.09260 0.00776
O 80.86626 0.65460 -0.17465
C 79.82875 -0.14643 0.02029
C 81.60756 -1.39237 0.33106
C 80.19830 -1.44380 0.34275
H 82.30935 -2.19061 0.52767
C 79.29409 -2.60652 0.62561
C 80.01663 -3.90566 0.99025
H 78.66717 -2.78506 -0.25773
H 78.62015 -2.33604 1.44890
C 79.02963 -5.04475 1.25267
H 80.63449 -3.74740 1.88303
H 80.69401 -4.19483 0.17709
C 79.75544 -6.32990 1.62013
H 80.35004 -6.19750 2.52976
H 80.42637 -6.64530 0.81458
H 79.03659 -7.13566 1.79852
H 78.41607 -5.22054 0.36133
H 78.34844 -4.77074 2.06672
C 92.07935 0.43649 -0.12874
C 91.73195 1.72875 -0.45210
C 90.31663 1.77353 -0.46323
H 92.42732 2.53153 -0.65229
O 90.99770 -0.31328 0.05690
C 89.94209 0.47554 -0.13769
C 89.43124 2.95349 -0.75679
C 90.20723 4.22856 -1.10783
H 88.79691 3.14859 0.11742
H 88.76407 2.70063 -1.59085
C 89.29804 5.42186 -1.39758
H 90.83906 4.04098 -1.98540
H 90.87837 4.48776 -0.27911
C 90.12546 6.65345 -1.74173
H 88.67218 5.63945 -0.52465
H 88.62739 5.19169 -2.23317
H 90.79175 6.92115 -0.91479
H 89.47525 7.50956 -1.94489
H 90.74109 6.47558 -2.62985
C 88.68268 -0.09769 0.00862
O 87.60712 0.65367 -0.17550
C 86.55958 -0.14031 0.01833
C 88.33854 -1.39493 0.33132
C 86.92593 -1.43879 0.34119
H 89.03274 -2.19920 0.52975
C 86.01068 -2.59542 0.62292
C 86.71694 -3.90216 0.98946
H 85.38315 -2.76815 -0.26142
H 85.33690 -2.31877 1.44459
C 85.71604 -5.03064 1.24916
H 87.33342 -3.75058 1.88416
H 87.39296 -4.19869 0.17805
C 86.42671 -6.32378 1.61849
H 87.02010 -6.19780 2.52980
H 87.09643 -6.64616 0.81472
H 85.69895 -7.12203 1.79479
H 85.10265 -5.20003 0.35637
H 85.03534 -4.74970 2.06136
C 98.94293 0.42690 -0.12549
C 98.57154 1.71621 -0.44824
C 97.14890 1.75094 -0.45772
H 99.25360 2.52966 -0.65057
O 97.84750 -0.32649 0.06034
C 96.77339 0.45187 -0.13233
C 96.24111 2.91803 -0.74810
C 96.97802 4.21237 -1.10412
H 95.60571 3.09931 0.12889
H 95.57337 2.65116 -1.57794
C 96.02653 5.37664 -1.38612
H 97.60702 4.04310 -1.98693
H 97.64665 4.49099 -0.28024
C 96.80712 6.63612 -1.73720
H 95.40019 5.57367 -0.50836
H 95.35567 5.12500 -2.21567
H 97.47074 6.92663 -0.91601
H 96.12568 7.46934 -1.93406
H 97.41986 6.47973 -2.63118
C 95.49433 -0.10890 0.01021
O 94.41288 0.65152 -0.17660
C 93.34647 -0.12888 0.01498
C 95.12473 -1.40125 0.33194
C 93.70698 -1.43019 0.33862
H 95.80516 -2.21634 0.53329
C 92.77254 -2.57503 0.61809
C 93.44908 -3.89519 0.98788
H 92.14443 -2.73710 -0.26823
H 92.09969 -2.28711 1.43705
C 92.42138 -5.00215 1.24207
H 94.06295 -3.75635 1.88614
H 94.12231 -4.20568 0.17974
C 93.10088 -6.31086 1.61504
H 93.69149 -6.19804 2.52983
H 93.76780 -6.64760 0.81491
H 92.35486 -7.09315 1.78695
H 91.80866 -5.15839 0.34627
H 91.74200 -4.70697 2.05052
C 105.91504 0.47753 -0.13895
C 105.48825 1.74216 -0.45644
C 104.06402 1.71078 -0.44722
H 106.12700 2.58678 -0.66945
O 104.86024 -0.34171 0.06832
C 103.72583 0.39541 -0.11547
C 103.10656 2.84422 -0.73035
C 103.77936 4.17012 -1.09352
H 102.47273 3.00008 0.15284
H 102.44346 2.55056 -1.55500
C 102.76853 5.28725 -1.36333
H 104.40448 4.03043 -1.98399
H 104.44301 4.47961 -0.27692
C 103.48128 6.58354 -1.72336
H 102.14377 5.45350 -0.47798
H 102.10013 5.00321 -2.18450
H 104.14001 6.90623 -0.91037
H 102.75703 7.38213 -1.91088
H 104.08928 6.45750 -2.62528
C 102.41982 -0.16002 0.02561
O 101.32796 0.61655 -0.16591
C 100.22934 -0.13745 0.01855
C 102.00691 -1.44247 0.34438
C 100.57922 -1.44334 0.34347
H 102.66269 -2.27627 0.55033
C 99.61045 -2.56411 0.61640
C 100.23113 -3.90701 0.99141
H 98.98312 -2.70538 -0.27459
H 98.93957 -2.25519 1.42993
C 99.15304 -4.96975 1.23411
H 100.83948 -3.79235 1.89633
H 100.89831 -4.24364 0.18932
C 99.77079 -6.30635 1.61355
H 100.35519 -6.21873 2.53495
H 100.43121 -6.67075 0.82032
H 98.99002 -7.05601 1.77660
H 98.54281 -5.09968 0.33215
H 98.47736 -4.64629 2.03513
H 106.88681 0.02082 -0.02517
*