units real
atom_style full
boundary p p p
bond_style harmonic
dielectric 10.0
pair_style lj/cut/coul/long 15.0
angle_style harmonic
dihedral_style hybrid opls multi/harmonic8
special_bonds lj/coul 0 0 .5
improper_style cvff
kspace_style ewald 1e-4
read_data {System_Name}.data
thermo_style custom step temp press ke pe etotal density

minimize 1.0e-4 1.0e-6 100 1000

dump 1 all custom 1000 Init_{System_Name}.lammpstrj id type mol xs ys zs vx vy vz
fix 0 all nve/limit 0.1
fix 1 all momentum 1 linear 1 1 1
fix 2 all shake 0.0001 20 0 m 1.008
fix 3 all langevin 300 300 3800 {Seed}
timestep 1.0
thermo 1000
run 50000
unfix 0
unfix 1
unfix 2
unfix 3

undump 1
timestep 1.0
minimize 1.0e-4 1.0e-6 100 1000
fix 3 all shake 0.0001 20 0 m 1.008
fix 1 all nve
fix 2 all momentum 1 linear 1 1 1
fix 0 all langevin 300 800 3800 {Seed}

dump 2 all custom 100000 Condense_{System_Name}.lammpstrj id type mol xs ys zs vx vy vz

run 3000000

unfix 0

fix 0 all langevin 800 800 3800 {Seed}

run 1000000

write_data {System_Name}_Randomized.data
write_restart restart.{System_Name}_Randomized
