$molecule
	0 1
C	-0.728138	-3.866725	-0.265779
C	0.575726	-3.703963	0.209225
C	1.002290	-2.357056	0.364875
H	1.224486	-4.561092	0.445176
C	-0.000000	-1.440664	-0.000000
S	-1.451343	-2.286957	-0.528236
C	2.369683	-1.978743	0.862808
H	2.975883	-2.878678	1.083368
H	2.317142	-1.376015	1.793522
H	2.927787	-1.375728	0.116375
H	-1.291990	-4.783437	-0.471251
C	0.000000	0.000000	0.000000
C	0.075300	0.860311	1.099446
C	0.195935	2.238951	0.776721
H	0.043151	0.492916	2.136088
C	0.215188	2.458766	-0.612546
S	0.082160	0.938811	-1.486809
C	0.290762	3.322559	1.814609
H	0.253664	2.898542	2.836676
H	-0.541206	4.052140	1.726239
H	1.236797	3.896558	1.726228
H	0.297938	3.404370	-1.161575
$end

$rem
	JOBTYPE		SP
	EXCHANGE	HF
	CORRELATION	pRIMP2
	BASIS		cc-pvtz
	METHOD		rimp2
	AUX_BASIS	rimp2-cc-pvtz
	SOLVENT_METHOD	PCM
	PURECART	11111
	SYMMETRY	false
	MEM_TOTAL	110000
	SCF_CONVERGENCE = 6
	THRESH=10
$end



$solvent
dielectric 4.90
$end