$molecule
	0 1
C	-2.405611	-1.193021	-0.000214
C	-1.368666	-2.129464	0.000078
C	-0.056385	-1.583331	0.000240
H	-1.558377	-3.213550	-0.000026
C	-0.070096	-0.177164	0.000128
S	-1.724467	0.426738	0.000356
C	1.187191	-2.428518	0.000317
H	0.935459	-3.506775	0.000315
H	1.817888	-2.233555	0.892774
H	1.817979	-2.233577	-0.892081
H	-2.405485	-1.192963	-1.080214
C	-3.830362	-1.463163	-0.000693
H	-4.210742	-1.535317	1.007605
H	-4.047583	-2.393146	-0.504941
H	-4.372936	-0.677211	-0.504888
H	-0.070222	-0.177222	1.080128
C	1.013453	0.772275	-0.000060
H	1.304668	1.027397	-1.008181
H	1.880178	0.370895	0.504104
H	0.729382	1.684243	0.504040
$end

$rem
	JOBTYPE		SP
	EXCHANGE	HF
	CORRELATION	pRIMP2
	BASIS		cc-pvtz
	METHOD		rimp2
	AUX_BASIS	rimp2-cc-pvtz
	SOLVENT_METHOD	PCM
	PURECART	11111
	SYMMETRY	false
	MEM_TOTAL	110000
	SCF_CONVERGENCE = 6
	THRESH=10
$end



$solvent
dielectric 4.90
$end