$molecule
	0 1
C	0.386946	-3.866725	0.671636
C	-0.306544	-3.703963	-0.530345
C	-0.533261	-2.357056	-0.923770
H	-0.651857	-4.561092	-1.128109
C	-0.000000	-1.440664	-0.000000
S	0.772250	-2.286957	1.337557
C	-1.260680	-1.978743	-2.184153
H	-1.583283	-2.878678	-2.742769
H	-0.622180	-1.376015	-2.863347
H	-2.168011	-1.375728	-1.971094
H	0.686807	-4.783437	1.191474
C	0.000000	0.000000	0.000000
C	0.365003	0.782674	1.099446
C	0.949885	2.036912	0.776721
H	0.209135	0.448431	2.136088
C	1.043159	2.236886	-0.612546
S	0.398297	0.854094	-1.486809
C	1.409609	3.022738	1.814609
H	1.229726	2.636980	2.836676
H	0.877346	3.992870	1.726239
H	2.494910	3.238558	1.726228
H	1.444334	3.097160	-1.161575
$end

$rem
	JOBTYPE		SP
	EXCHANGE	HF
	CORRELATION	pRIMP2
	BASIS		cc-pvtz
	METHOD		rimp2
	AUX_BASIS	rimp2-cc-pvtz
	SOLVENT_METHOD	PCM
	PURECART	11111
	SYMMETRY	false
	MEM_TOTAL	110000
	SCF_CONVERGENCE = 6
	THRESH=10
$end



$solvent
dielectric 4.90
$end