$molecule
	0 1
C	0.670924	-3.866725	0.388181
C	-0.530648	-3.703963	-0.306020
C	-0.923703	-2.357056	-0.533378
H	-1.128579	-4.561092	-0.651043
C	0.000000	-1.440664	0.000000
S	1.337567	-2.286957	0.772234
C	-2.183857	-1.978743	-1.261192
H	-2.742548	-2.878678	-1.583666
H	-1.970497	-1.376015	-2.168641
H	-2.863099	-1.375728	-0.623012
H	1.190530	-4.783437	0.688443
C	0.000000	0.000000	0.000000
C	0.747916	0.431772	1.099446
C	1.946425	1.123709	0.776721
H	0.428523	0.247378	2.136088
C	2.137531	1.234018	-0.612546
S	0.816154	0.471179	-1.486809
C	2.888455	1.667564	1.814609
H	2.519842	1.454746	2.836676
H	3.008896	2.767543	1.726239
H	3.901271	1.221850	1.726228
H	2.959587	1.708609	-1.161575
$end

$rem
	JOBTYPE		SP
	EXCHANGE	HF
	CORRELATION	pRIMP2
	BASIS		cc-pvtz
	METHOD		rimp2
	AUX_BASIS	rimp2-cc-pvtz
	SOLVENT_METHOD	PCM
	PURECART	11111
	SYMMETRY	false
	MEM_TOTAL	110000
	SCF_CONVERGENCE = 6
	THRESH=10
$end



$solvent
dielectric 4.90
$end