$molecule
	0 1
C	-2.405607	-1.193018	0.008276
C	-1.368662	-2.129461	0.008568
C	-0.056381	-1.583328	0.008730
H	-1.558373	-3.213547	0.008464
C	-0.070092	-0.177161	0.008618
S	-1.724463	0.426741	0.008846
C	1.187195	-2.428515	0.008807
H	0.935463	-3.506772	0.008805
H	1.817892	-2.233552	0.901264
H	1.817983	-2.233574	-0.883591
H	-2.405481	-1.192960	-1.071724
C	-3.830358	-1.463160	0.007797
H	-4.210738	-1.535314	1.016095
H	-4.047579	-2.393143	-0.496451
H	-4.372932	-0.677208	-0.496398
H	-0.069966	-0.177103	-1.071382
C	1.013457	0.772278	0.008430
H	1.304437	1.027293	1.016842
H	0.728816	1.683923	-0.495737
H	1.879835	0.370320	-0.495673
$end

$rem
	JOBTYPE		SP
	EXCHANGE	HF
	CORRELATION	pRIMP2
	BASIS		cc-pvtz
	METHOD		rimp2
	AUX_BASIS	rimp2-cc-pvtz
	SOLVENT_METHOD	PCM
	PURECART	11111
	SYMMETRY	false
	MEM_TOTAL	110000
	SCF_CONVERGENCE = 6
	THRESH=10
$end



$solvent
dielectric 4.90
$end