units		real
atom_style	full
pair_style	lj/cut/coul/cut 10.0 9.7
bond_style	harmonic
angle_style	harmonic
dihedral_style	opls
special_bonds	lj/coul 0 0 0.5
improper_style	cvff
pair_modify mix geometric
read_data <Molecule.Molecule object at 0x114b2efd0>

timestep 1.0
minimize 1.0e-8 1.0e-8 1000 100000
write_data Dimethyl_Dithienosilole_Optimized_Geometry.data