! RKS B3LYP 6-31+G** NormalSCF Opt NOSOSCF CHELPG

*xyz 0 1
C -2.56762 2.04393 -0.58621
N -1.61365 2.92833 -0.05143
C -2.18699 0.78875 -0.35015
C -0.97354 0.76215 0.39802
C -0.57250 2.18447 0.58198
O 0.37761 2.60708 1.21032
C -2.65040 -0.57550 -0.56755
N -1.73490 -1.35209 0.18460
C -0.67821 -0.52430 0.65764
O -3.61100 -0.88630 -1.24294
C -1.65295 4.41588 0.07644
C -3.04221 4.99689 -0.21553
C -3.47419 6.39316 0.23794
H -3.74389 4.32975 0.29033
H -3.21651 4.95830 -1.29498
C -5.01414 6.37903 0.28922
H -3.13371 7.15089 -0.47233
H -3.06721 6.63544 1.22465
C -5.69373 7.71469 0.01465
H -5.32735 5.99779 1.26974
H -5.39526 5.66483 -0.45345
C -7.21195 7.49890 -0.01866
H -5.35746 8.10865 -0.95180
H -5.42616 8.44557 0.78498
C -7.97297 8.75749 -0.38814
H -7.55472 7.14121 0.95961
H -7.45957 6.71604 -0.74705
H -7.78152 9.55838 0.33135
H -9.04891 8.55363 -0.39518
H -7.68963 9.10712 -1.38569
C -0.49658 5.05946 -0.73615
H -1.43860 4.61083 1.13625
C -0.38799 6.57968 -0.57589
H -0.60739 4.81208 -1.79957
H 0.45287 4.60911 -0.42197
C 0.99203 7.14020 -0.94037
H -0.61279 6.86226 0.45920
H -1.13068 7.05483 -1.22454
C 0.97812 8.67220 -0.86231
H 1.27424 6.82071 -1.94998
H 1.74404 6.74322 -0.24763
C 2.33630 9.29227 -1.19963
H 0.67566 8.98359 0.14529
H 0.22379 9.06203 -1.55726
C 2.29157 10.81689 -1.04770
H 2.61777 9.02668 -2.22509
H 3.09943 8.87800 -0.53042
C 3.52963 11.53962 -1.58384
H 2.15744 11.06933 0.01168
H 1.41493 11.21325 -1.57548
C 4.84270 11.03119 -1.01181
H 3.55852 11.45855 -2.67670
H 3.43302 12.60734 -1.35123
H 5.07014 10.02593 -1.37979
H 4.81581 11.00464 0.08171
H 5.66447 11.68714 -1.31699
C -1.96049 -2.80365 0.45589
C -3.45281 -3.18953 0.23495
C -4.00652 -4.54741 0.68636
H -3.66679 -3.12851 -0.83901
H -4.06164 -2.42378 0.73597
C -5.53604 -4.51018 0.47582
H -3.77499 -4.73102 1.74036
H -3.57421 -5.35706 0.09081
C -6.27480 -5.81482 0.77448
H -5.74749 -4.22604 -0.56395
H -5.95594 -3.71561 1.10640
C -7.78903 -5.59588 0.63434
H -6.04219 -6.15598 1.78913
H -5.94708 -6.59521 0.07786
C -8.59422 -6.85736 0.89656
H -8.02155 -5.23079 -0.37362
H -8.11437 -4.81860 1.33666
H -8.35269 -7.63717 0.16808
H -9.66548 -6.64177 0.81662
H -8.40286 -7.24624 1.90111
C -1.00150 -3.67093 -0.37488
H -1.76745 -2.93509 1.52524
C -0.71273 -5.05352 0.23804
H -0.05514 -3.13384 -0.50598
H -1.39621 -3.79914 -1.39043
C 0.78382 -5.35847 0.15781
H -1.27734 -5.81877 -0.30643
H -1.02985 -5.10097 1.28643
C 1.15454 -6.78450 0.56567
H 1.31840 -4.65377 0.80537
H 1.13729 -5.18164 -0.86552
C 2.68053 -6.90792 0.60494
H 0.73316 -7.49492 -0.15510
H 0.73586 -7.02540 1.54979
C 3.16644 -8.33930 0.81916
H 3.06908 -6.26795 1.40750
H 3.09972 -6.52763 -0.33510
C 4.69652 -8.37313 0.85655
H 2.80123 -8.97828 0.00630
H 2.76108 -8.73759 1.75659
C 5.23360 -9.78494 1.01152
H 5.05947 -7.75711 1.68796
H 5.10054 -7.93796 -0.06547
H 4.87552 -10.24226 1.93881
H 6.32796 -9.76954 1.03991
H 4.92546 -10.41554 0.17177
C -3.82249 2.31729 -1.18875
C -4.12653 2.84478 -2.43285
S -5.28311 1.94969 -0.32496
C -6.26911 2.55414 -1.57687
C -5.52910 3.01079 -2.64182
H -5.97370 3.43814 -3.53180
H -7.34526 2.54194 -1.47035
H -3.37028 3.13840 -3.15066
C 0.55003 -0.94741 1.25703
C 0.86015 -2.00967 2.09561
C 2.24630 -2.09858 2.43778
C 2.98103 -1.08654 1.87476
S 2.02752 -0.10616 0.86734
H 0.13376 -2.71911 2.46433
H 4.03884 -0.88743 1.98494
H 2.67880 -2.86038 3.07466
*