# created by CMLParser

units real
atom_style full
bond_style harmonic
dielectric 1.0
pair_style lj/cut/coul/long 10.0 8.0
angle_style harmonic
dihedral_style hybrid opls multi/harmonic8
special_bonds lj/coul 0 0 .5
improper_style cvff
kspace_style ewald 1e-4
read_restart {Restart_In}
thermo_style custom step temp press ke pe etotal density

{Dihedral_Coeffs}

dump 1 all custom 1000 Init_{Name}.lammpstrj id type mol xs ys zs vx vy vz
neighbor 10.0 bin
neigh_modify every 1 delay 0 one 10000

timestep 1.0
fix 3 all shake 0.0001 20 0 m 1.008
fix 1 all nvt temp 300.0 800.0 1.0    # note the chain group
fix 2 all momentum 1 linear 1 1 1
dump 2 all custom 100000 Condense_{Name}.lammpstrj id type mol xs ys zs vx vy vz
run 100000

unfix 1
fix 1 all nvt temp 800.0 800.0 1.0

run 10000
write_data data.*
write_restart restart.*
run 10000
write_data data.*
write_restart restart.*
run 10000
write_data data.*
write_restart restart.*
run 10000
write_data data.*
write_restart restart.*
run 10000
write_data data.*
write_restart restart.*
run 10000
write_data data.*
write_restart restart.*
run 10000
write_data data.*
write_restart restart.*
run 10000
write_data data.*
write_restart restart.*
run 10000
write_data data.*
write_restart restart.*
run 10000
write_data data.*
write_restart restart.*
run 10000
write_data data.*
write_restart restart.*
run 10000
write_data data.*
write_restart restart.*
run 10000
write_data data.*
write_restart restart.*
run 10000
write_data data.*
write_restart restart.*
run 10000
write_data data.*
write_restart restart.*
run 10000
write_data data.*
write_restart restart.*
run 10000
write_data data.*
write_restart restart.*
run 10000
write_data data.*
write_restart restart.*
run 10000
write_data data.*
write_restart restart.*
run 10000
write_data data.*
write_restart restart.*
run 10000
write_data data.*
write_restart restart.*
run 10000
write_data data.*
write_restart restart.*
run 10000
write_data data.*
write_restart restart.*
run 10000
write_data data.*
write_restart restart.*
run 10000
write_data data.*
write_restart restart.*
run 10000
write_data data.*
write_restart restart.*
run 10000
write_data data.*
write_restart restart.*
run 10000
write_data data.*
write_restart restart.*
run 10000
write_data data.*
write_restart restart.*
run 10000
write_data data.*
write_restart restart.*
run 10000
write_data data.*
write_restart restart.*
run 10000
write_data data.*
write_restart restart.*
run 10000
write_data data.*
write_restart restart.*
run 10000
write_data data.*
write_restart restart.*
run 10000
write_data data.*
write_restart restart.*
run 10000
write_data data.*
write_restart restart.*
run 10000
write_data data.*
write_restart restart.*
run 10000
write_data data.*
write_restart restart.*
run 10000
write_data data.*
write_restart restart.*
run 10000
write_data data.*
write_restart restart.*
run 10000
write_data data.*
write_restart restart.*
run 10000
write_data data.*
write_restart restart.*
run 10000
write_data data.*
write_restart restart.*
run 10000
write_data data.*
write_restart restart.*
run 10000
write_data data.*
write_restart restart.*
run 10000
write_data data.*
write_restart restart.*
run 10000
write_data data.*
write_restart restart.*
run 10000
write_data data.*
write_restart restart.*
run 10000
write_data data.*
write_restart restart.*
run 10000
write_data data.*
write_restart restart.*
run 10000
write_data data.*
write_restart restart.*
run 10000
write_data data.*
write_restart restart.*
run 10000
write_data data.*
write_restart restart.*
run 10000
write_data data.*
write_restart restart.*
run 10000
write_data data.*
write_restart restart.*
run 10000
write_data data.*
write_restart restart.*
run 10000
write_data data.*
write_restart restart.*
run 10000
write_data data.*
write_restart restart.*
run 10000
write_data data.*
write_restart restart.*
run 10000
write_data data.*
write_restart restart.*
run 10000
write_data data.*
write_restart restart.*
run 10000
write_data data.*
write_restart restart.*
run 10000
write_data data.*
write_restart restart.*
run 10000
write_data data.*
write_restart restart.*
run 10000
write_data data.*
write_restart restart.*
run 10000
write_data data.*
write_restart restart.*
run 10000
write_data data.*
write_restart restart.*
run 10000
write_data data.*
write_restart restart.*
run 10000
write_data data.*
write_restart restart.*
run 10000
write_data data.*
write_restart restart.*
run 10000
write_data data.*
write_restart restart.*
run 10000
write_data data.*
write_restart restart.*
run 10000
write_data data.*
write_restart restart.*
run 10000
write_data data.*
write_restart restart.*
run 10000
write_data data.*
write_restart restart.*
run 10000
write_data data.*
write_restart restart.*
run 10000
write_data data.*
write_restart restart.*
run 10000
write_data data.*
write_restart restart.*
run 10000
write_data data.*
write_restart restart.*
run 10000
write_data data.*
write_restart restart.*
run 10000
write_data data.*
write_restart restart.*
run 10000
write_data data.*
write_restart restart.*
run 10000
write_data data.*
write_restart restart.*
run 10000
write_data data.*
write_restart restart.*
run 10000
write_data data.*
write_restart restart.*
run 10000
write_data data.*
write_restart restart.*
run 10000
write_data data.*
write_restart restart.*
run 10000
write_data data.*
write_restart restart.*
run 10000
write_data data.*
write_restart restart.*
run 10000
write_data data.*
write_restart restart.*
run 10000
write_data data.*
write_restart restart.*
run 10000
write_data data.*
write_restart restart.*
run 10000
write_data data.*
write_restart restart.*
run 10000
write_data data.*
write_restart restart.*
run 10000
write_data data.*
write_restart restart.*
run 10000
write_data data.*
write_restart restart.*
run 10000
write_data data.*
write_restart restart.*
run 10000
write_data data.*
write_restart restart.*
run 10000
write_data data.*
write_restart restart.*
run 10000
write_data data.*
write_restart restart.*
run 10000
write_data data.*
write_restart restart.*
run 10000
write_data data.*
write_restart restart.*
run 10000
write_data data.*
write_restart restart.*
run 10000
write_data data.*
write_restart restart.*
run 10000
write_data data.*
write_restart restart.*
run 10000
write_data data.*
write_restart restart.*
run 10000
write_data data.*
write_restart restart.*
run 10000
write_data data.*
write_restart restart.*
run 10000
write_data data.*
write_restart restart.*
run 10000
write_data data.*
write_restart restart.*
run 10000
write_data data.*
write_restart restart.*
run 10000
write_data data.*
write_restart restart.*
run 10000
write_data data.*
write_restart restart.*
run 10000
write_data data.*
write_restart restart.*
run 10000
write_data data.*
write_restart restart.*
run 10000
write_data data.*
write_restart restart.*
run 10000
write_data data.*
write_restart restart.*
run 10000
write_data data.*
write_restart restart.*
run 10000
write_data data.*
write_restart restart.*
run 10000
write_data data.*
write_restart restart.*
run 10000
write_data data.*
write_restart restart.*
run 10000
write_data data.*
write_restart restart.*
run 10000
write_data data.*
write_restart restart.*
run 10000
write_data data.*
write_restart restart.*
run 10000
write_data data.*
write_restart restart.*
run 10000
write_data data.*
write_restart restart.*
run 10000
write_data data.*
write_restart restart.*
run 10000
write_data data.*
write_restart restart.*
run 10000
write_data data.*
write_restart restart.*
run 10000
write_data data.*
write_restart restart.*
run 10000
write_data data.*
write_restart restart.*
run 10000
write_data data.*
write_restart restart.*
run 10000
write_data data.*
write_restart restart.*
run 10000
write_data data.*
write_restart restart.*
run 10000
write_data data.*
write_restart restart.*
run 10000
write_data data.*
write_restart restart.*
run 10000
write_data data.*
write_restart restart.*
run 10000
write_data data.*
write_restart restart.*
run 10000
write_data data.*
write_restart restart.*
run 10000
write_data data.*
write_restart restart.*
run 10000
write_data data.*
write_restart restart.*
run 10000
write_data data.*
write_restart restart.*
run 10000
write_data data.*
write_restart restart.*
run 10000
write_data data.*
write_restart restart.*
run 10000
write_data data.*
write_restart restart.*
run 10000
write_data data.*
write_restart restart.*
run 10000
write_data data.*
write_restart restart.*
run 10000
write_data data.*
write_restart restart.*
run 10000
write_data data.*
write_restart restart.*
run 10000
write_data data.*
write_restart restart.*
run 10000
write_data data.*
write_restart restart.*
run 10000
write_data data.*
write_restart restart.*
run 10000
write_data data.*
write_restart restart.*
run 10000
write_data data.*
write_restart restart.*
run 10000
write_data data.*
write_restart restart.*
run 10000
write_data data.*
write_restart restart.*
run 10000
write_data data.*
write_restart restart.*
run 10000
write_data data.*
write_restart restart.*
run 10000
write_data data.*
write_restart restart.*
run 10000
write_data data.*
write_restart restart.*
run 10000
write_data data.*
write_restart restart.*
run 10000
write_data data.*
write_restart restart.*
run 10000
write_data data.*
write_restart restart.*
run 10000
write_data data.*
write_restart restart.*
run 10000
write_data data.*
write_restart restart.*
run 10000
write_data data.*
write_restart restart.*
run 10000
write_data data.*
write_restart restart.*
run 10000
write_data data.*
write_restart restart.*
run 10000
write_data data.*
write_restart restart.*
run 10000
write_data data.*
write_restart restart.*
run 10000
write_data data.*
write_restart restart.*
run 10000
write_data data.*
write_restart restart.*
run 10000
write_data data.*
write_restart restart.*
run 10000
write_data data.*
write_restart restart.*
run 10000
write_data data.*
write_restart restart.*
run 10000
write_data data.*
write_restart restart.*
run 10000
write_data data.*
write_restart restart.*
run 10000
write_data data.*
write_restart restart.*
run 10000
write_data data.*
write_restart restart.*
run 10000
write_data data.*
write_restart restart.*
run 10000
write_data data.*
write_restart restart.*
run 10000
write_data data.*
write_restart restart.*
run 10000
write_data data.*
write_restart restart.*
run 10000
write_data data.*
write_restart restart.*
run 10000
write_data data.*
write_restart restart.*
run 10000
write_data data.*
write_restart restart.*
run 10000
write_data data.*
write_restart restart.*
run 10000
write_data data.*
write_restart restart.*
run 10000
write_data data.*
write_restart restart.*
run 10000
write_data data.*
write_restart restart.*
run 10000
write_data data.*
write_restart restart.*
run 10000
write_data data.*
write_restart restart.*
run 10000
write_data data.*
write_restart restart.*
run 10000
write_data data.*
write_restart restart.*
run 10000
write_data data.*
write_restart restart.*
run 10000
write_data data.*
write_restart restart.*
run 10000
write_data data.*
write_restart restart.*
run 10000
write_data data.*
write_restart restart.*
run 10000
write_data data.*
write_restart restart.*
run 10000
write_data data.*
write_restart restart.*
run 10000
write_data data.*
write_restart restart.*
run 10000
write_data data.*
write_restart restart.*
run 10000
write_data data.*
write_restart restart.*
run 10000
write_data data.*
write_restart restart.*
run 10000
write_data data.*
write_restart restart.*
run 10000
write_data data.*
write_restart restart.*
run 10000
write_data data.*
write_restart restart.*
run 10000
write_data data.*
write_restart restart.*
run 10000
write_data data.*
write_restart restart.*
run 10000
write_data data.*
write_restart restart.*
run 10000
write_data data.*
write_restart restart.*
run 10000
write_data data.*
write_restart restart.*
run 10000
write_data data.*
write_restart restart.*
run 10000
write_data data.*
write_restart restart.*
run 10000
write_data data.*
write_restart restart.*
run 10000
write_data data.*
write_restart restart.*
run 10000
write_data data.*
write_restart restart.*
run 10000
write_data data.*
write_restart restart.*
run 10000
write_data data.*
write_restart restart.*
run 10000
write_data data.*
write_restart restart.*
run 10000
write_data data.*
write_restart restart.*
run 10000
write_data data.*
write_restart restart.*
run 10000
write_data data.*
write_restart restart.*
run 10000
write_data data.*
write_restart restart.*
run 10000
write_data data.*
write_restart restart.*
run 10000
write_data data.*
write_restart restart.*
run 10000
write_data data.*
write_restart restart.*
run 10000
write_data data.*
write_restart restart.*
run 10000
write_data data.*
write_restart restart.*
run 10000
write_data data.*
write_restart restart.*
run 10000
write_data data.*
write_restart restart.*
run 10000
write_data data.*
write_restart restart.*
run 10000
write_data data.*
write_restart restart.*
run 10000
write_data data.*
write_restart restart.*
run 10000
write_data data.*
write_restart restart.*
run 10000
write_data data.*
write_restart restart.*
run 10000
write_data data.*
write_restart restart.*
run 10000
write_data data.*
write_restart restart.*
run 10000
write_data data.*
write_restart restart.*
run 10000
write_data data.*
write_restart restart.*
run 10000
write_data data.*
write_restart restart.*
run 10000
write_data data.*
write_restart restart.*
run 10000
write_data data.*
write_restart restart.*
run 10000
write_data data.*
write_restart restart.*
run 10000
write_data data.*
write_restart restart.*
run 10000
write_data data.*
write_restart restart.*
run 10000
write_data data.*
write_restart restart.*
run 10000
write_data data.*
write_restart restart.*
run 10000
write_data data.*
write_restart restart.*
run 10000
write_data data.*
write_restart restart.*
run 10000
write_data data.*
write_restart restart.*
run 10000
write_data data.*
write_restart restart.*
run 10000
write_data data.*
write_restart restart.*
run 10000
write_data data.*
write_restart restart.*
run 10000
write_data data.*
write_restart restart.*
run 10000
write_data data.*
write_restart restart.*
run 10000
write_data data.*
write_restart restart.*
run 10000
write_data data.*
write_restart restart.*
run 10000
write_data data.*
write_restart restart.*
run 10000
write_data data.*
write_restart restart.*
run 10000
write_data data.*
write_restart restart.*
run 10000
write_data data.*
write_restart restart.*
run 10000
write_data data.*
write_restart restart.*
run 10000
write_data data.*
write_restart restart.*
run 10000
write_data data.*
write_restart restart.*
run 10000
write_data data.*
write_restart restart.*
run 10000
write_data data.*
write_restart restart.*
run 10000
write_data data.*
write_restart restart.*
run 10000
write_data data.*
write_restart restart.*
run 10000
write_data data.*
write_restart restart.*
run 10000
write_data data.*
write_restart restart.*
run 10000
write_data data.*
write_restart restart.*
run 10000
write_data data.*
write_restart restart.*
run 10000
write_data data.*
write_restart restart.*
run 10000
write_data data.*
write_restart restart.*
run 10000
write_data data.*
write_restart restart.*
run 10000
write_data data.*
write_restart restart.*
run 10000
write_data data.*
write_restart restart.*
run 10000
write_data data.*
write_restart restart.*
run 10000
write_data data.*
write_restart restart.*
run 10000
write_data data.*
write_restart restart.*
run 10000
write_data data.*
write_restart restart.*
run 10000
write_data data.*
write_restart restart.*
run 10000
write_data data.*
write_restart restart.*
run 10000
write_data data.*
write_restart restart.*
run 10000
write_data data.*
write_restart restart.*
run 10000
write_data data.*
write_restart restart.*
run 10000
write_data data.*
write_restart restart.*
run 10000
write_data data.*
write_restart restart.*
run 10000
write_data data.*
write_restart restart.*
run 10000
write_data data.*
write_restart restart.*
run 10000
write_data data.*
write_restart restart.*
run 10000
write_data data.*
write_restart restart.*
run 10000
write_data data.*
write_restart restart.*
run 10000
write_data data.*
write_restart restart.*
run 10000
write_data data.*
write_restart restart.*
run 10000
write_data data.*
write_restart restart.*
run 10000
write_data data.*
write_restart restart.*
run 10000
write_data data.*
write_restart restart.*
run 10000
write_data data.*
write_restart restart.*
run 10000
write_data data.*
write_restart restart.*
run 10000
write_data data.*
write_restart restart.*
run 10000
write_data data.*
write_restart restart.*
run 10000
write_data data.*
write_restart restart.*
run 10000
write_data data.*
write_restart restart.*
run 10000
write_data data.*
write_restart restart.*
run 10000
write_data data.*
write_restart restart.*
run 10000
write_data data.*
write_restart restart.*
run 10000
write_data data.*
write_restart restart.*
run 10000
write_data data.*
write_restart restart.*
run 10000
write_data data.*
write_restart restart.*
run 10000
write_data data.*
write_restart restart.*
run 10000
write_data data.*
write_restart restart.*
run 10000
write_data data.*
write_restart restart.*
run 10000
write_data data.*
write_restart restart.*
run 10000
write_data data.*
write_restart restart.*
run 10000
write_data data.*
write_restart restart.*
run 10000
write_data data.*
write_restart restart.*
run 10000
write_data data.*
write_restart restart.*
run 10000
write_data data.*
write_restart restart.*
run 10000
write_data data.*
write_restart restart.*
run 10000
write_data data.*
write_restart restart.*
run 10000
write_data data.*
write_restart restart.*
run 10000
write_data data.*
write_restart restart.*
run 10000
write_data data.*
write_restart restart.*
run 10000
write_data data.*
write_restart restart.*
run 10000
write_data data.*
write_restart restart.*
run 10000
write_data data.*
write_restart restart.*
run 10000
write_data data.*
write_restart restart.*
run 10000
write_data data.*
write_restart restart.*
run 10000
write_data data.*
write_restart restart.*
run 10000
write_data data.*
write_restart restart.*
run 10000
write_data data.*
write_restart restart.*
run 10000
write_data data.*
write_restart restart.*
run 10000
write_data data.*
write_restart restart.*
run 10000
write_data data.*
write_restart restart.*
run 10000
write_data data.*
write_restart restart.*
run 10000
write_data data.*
write_restart restart.*
run 10000
write_data data.*
write_restart restart.*
run 10000
write_data data.*
write_restart restart.*
run 10000
write_data data.*
write_restart restart.*
run 10000
write_data data.*
write_restart restart.*
run 10000
write_data data.*
write_restart restart.*
run 10000
write_data data.*
write_restart restart.*
run 10000
write_data data.*
write_restart restart.*
run 10000
write_data data.*
write_restart restart.*
run 10000
write_data data.*
write_restart restart.*
run 10000
write_data data.*
write_restart restart.*
run 10000
write_data data.*
write_restart restart.*
run 10000
write_data data.*
write_restart restart.*
run 10000
write_data data.*
write_restart restart.*
run 10000
write_data data.*
write_restart restart.*
run 10000
write_data data.*
write_restart restart.*
run 10000
write_data data.*
write_restart restart.*
run 10000
write_data data.*
write_restart restart.*
run 10000
write_data data.*
write_restart restart.*
run 10000
write_data data.*
write_restart restart.*
run 10000
write_data data.*
write_restart restart.*
run 10000
write_data data.*
write_restart restart.*
run 10000
write_data data.*
write_restart restart.*
run 10000
write_data data.*
write_restart restart.*
run 10000
write_data data.*
write_restart restart.*
run 10000
write_data data.*
write_restart restart.*
run 10000
write_data data.*
write_restart restart.*
run 10000
write_data data.*
write_restart restart.*
run 10000
write_data data.*
write_restart restart.*
run 10000
write_data data.*
write_restart restart.*
run 10000
write_data data.*
write_restart restart.*
run 10000
write_data data.*
write_restart restart.*
run 10000
write_data data.*
write_restart restart.*
run 10000
write_data data.*
write_restart restart.*
run 10000
write_data data.*
write_restart restart.*
run 10000
write_data data.*
write_restart restart.*
run 10000
write_data data.*
write_restart restart.*
run 10000
write_data data.*
write_restart restart.*
run 10000
write_data data.*
write_restart restart.*
run 10000
write_data data.*
write_restart restart.*
run 10000
write_data data.*
write_restart restart.*
run 10000
write_data data.*
write_restart restart.*
run 10000
write_data data.*
write_restart restart.*
run 10000
write_data data.*
write_restart restart.*
run 10000
write_data data.*
write_restart restart.*
run 10000
write_data data.*
write_restart restart.*
run 10000
write_data data.*
write_restart restart.*
run 10000
write_data data.*
write_restart restart.*
run 10000
write_data data.*
write_restart restart.*
run 10000
write_data data.*
write_restart restart.*
run 10000
write_data data.*
write_restart restart.*
run 10000
write_data data.*
write_restart restart.*
run 10000
write_data data.*
write_restart restart.*
run 10000
write_data data.*
write_restart restart.*
run 10000
write_data data.*
write_restart restart.*
run 10000
write_data data.*
write_restart restart.*


write_restart {Restart_Out}
