# created by CMLParser

units real
atom_style full
boundary p p p
bond_style harmonic
dielectric 1.0
pair_style lj/cut/coul/long 15.0
angle_style harmonic
dihedral_style hybrid opls multi/harmonic8
special_bonds lj/coul 0 0 .5
improper_style cvff
kspace_style ewald 1e-4
read_restart {Restart_In}
thermo_style custom step temp press ke pe etotal density

{Dihedral_Coeffs}

thermo 1000

timestep 1.0
fix 3 all shake 0.0001 20 0 m 1.008
fix 1 all nvt temp 800.0 800.0 1.0
fix 2 all momentum 1 linear 1 1 1

dump 2 all custom 100000 Condense_{System_Name}_3.lammpstrj id type mol xs ys zs vx vy vz

write_restart restart.*
run 20000
write_restart restart.*
run 20000
write_restart restart.*
run 20000
write_restart restart.*
run 20000
write_restart restart.*
run 20000
write_restart restart.*
run 20000
write_restart restart.*
run 20000
write_restart restart.*
run 20000
write_restart restart.*
run 20000
write_restart restart.*
run 20000
write_restart restart.*
run 20000
write_restart restart.*
run 20000
write_restart restart.*
run 20000
write_restart restart.*
run 20000
write_restart restart.*
run 20000
write_restart restart.*
run 20000
write_restart restart.*
run 20000
write_restart restart.*
run 20000
write_restart restart.*
run 20000
write_restart restart.*
run 20000
write_restart restart.*
run 20000
write_restart restart.*
run 20000
write_restart restart.*
run 20000
write_restart restart.*
run 20000
write_restart restart.*
run 20000
write_restart restart.*
run 20000
write_restart restart.*
run 20000
write_restart restart.*
run 20000
write_restart restart.*
run 20000
write_restart restart.*
run 20000
write_restart restart.*
run 20000
write_restart restart.*
run 20000
write_restart restart.*
run 20000
write_restart restart.*
run 20000
write_restart restart.*
run 20000
write_restart restart.*
run 20000
write_restart restart.*
run 20000
write_restart restart.*
run 20000
write_restart restart.*
run 20000
write_restart restart.*
run 20000
write_restart restart.*
run 20000
write_restart restart.*
run 20000
write_restart restart.*
run 20000
write_restart restart.*
run 20000
write_restart restart.*
run 20000
write_restart restart.*
run 20000
write_restart restart.*
run 20000
write_restart restart.*
run 20000
write_restart restart.*
run 20000
write_restart restart.*
run 20000
write_restart restart.*
run 20000
write_restart restart.*
run 20000
write_restart restart.*
run 20000
write_restart restart.*
run 20000
write_restart restart.*
run 20000
write_restart restart.*
run 20000
write_restart restart.*
run 20000
write_restart restart.*
run 20000
write_restart restart.*
run 20000
write_restart restart.*
run 20000
write_restart restart.*
run 20000
write_restart restart.*
run 20000
write_restart restart.*
run 20000
write_restart restart.*
run 20000
write_restart restart.*
run 20000
write_restart restart.*
run 20000
write_restart restart.*
run 20000
write_restart restart.*
run 20000
write_restart restart.*
run 20000
write_restart restart.*
run 20000
write_restart restart.*
run 20000
write_restart restart.*
run 20000
write_restart restart.*
run 20000
write_restart restart.*
run 20000
write_restart restart.*
run 20000
write_restart restart.*
run 20000
write_restart restart.*
run 20000
write_restart restart.*
run 20000
write_restart restart.*
run 20000
write_restart restart.*
run 20000
write_restart restart.*
run 20000
write_restart restart.*
run 20000
write_restart restart.*
run 20000
write_restart restart.*
run 20000
write_restart restart.*
run 20000
write_restart restart.*
run 20000
write_restart restart.*
run 20000
write_restart restart.*
run 20000
write_restart restart.*
run 20000
write_restart restart.*
run 20000
write_restart restart.*
run 20000
write_restart restart.*
run 20000
write_restart restart.*
run 20000
write_restart restart.*
run 20000
write_restart restart.*
run 20000
write_restart restart.*
run 20000
write_restart restart.*
run 20000
write_restart restart.*
run 20000
write_restart restart.*
run 20000
write_restart restart.*
run 20000
write_restart restart.*
run 20000
write_restart restart.*
run 20000
write_restart restart.*
run 20000
write_restart restart.*
run 20000
write_restart restart.*
run 20000
write_restart restart.*
run 20000
write_restart restart.*
run 20000
write_restart restart.*
run 20000
write_restart restart.*
run 20000
write_restart restart.*
run 20000
write_restart restart.*
run 20000
write_restart restart.*
run 20000
write_restart restart.*
run 20000
write_restart restart.*
run 20000
write_restart restart.*
run 20000
write_restart restart.*
run 20000
write_restart restart.*
run 20000
write_restart restart.*
run 20000
write_restart restart.*
run 20000
write_restart restart.*
run 20000
write_restart restart.*
run 20000
write_restart restart.*
run 20000
write_restart restart.*
run 20000
write_restart restart.*
run 20000
write_restart restart.*
run 20000
write_restart restart.*
run 20000
write_restart restart.*
run 20000
write_restart restart.*
run 20000
write_restart restart.*
run 20000
write_restart restart.*
run 20000
write_restart restart.*
run 20000
write_restart restart.*
run 20000
write_restart restart.*
run 20000
write_restart restart.*
run 20000
write_restart restart.*
run 20000
write_restart restart.*
run 20000
write_restart restart.*
run 20000
write_restart restart.*
run 20000
write_restart restart.*
run 20000
write_restart restart.*
run 20000
write_restart restart.*
run 20000
write_restart restart.*
run 20000
write_restart restart.*
run 20000
write_restart restart.*
run 20000
write_restart restart.*
run 20000
write_restart restart.*
run 20000
write_restart restart.*
run 20000
write_restart restart.*
run 20000
write_restart restart.*
run 20000
write_restart restart.*
run 20000
write_restart restart.*
run 20000
write_restart restart.*
run 20000
write_restart restart.*
run 20000
write_restart restart.*
run 20000
write_restart restart.*
run 20000
write_restart restart.*
run 20000
write_restart restart.*
run 20000
write_restart restart.*
run 20000
write_restart restart.*
run 20000
write_restart restart.*
run 20000
write_restart restart.*
run 20000
write_restart restart.*
run 20000
write_restart restart.*
run 20000
write_restart restart.*
run 20000
write_restart restart.*
run 20000
write_restart restart.*
run 20000
write_restart restart.*
run 20000
write_restart restart.*
run 20000
write_restart restart.*
run 20000
write_restart restart.*
run 20000
write_restart restart.*
run 20000
write_restart restart.*
run 20000
write_restart restart.*
run 20000
write_restart restart.*
run 20000
write_restart restart.*
run 20000
write_restart restart.*
run 20000
write_restart restart.*
run 20000
write_restart restart.*
run 20000
write_restart restart.*
run 20000
write_restart restart.*
run 20000
write_restart restart.*
run 20000
write_restart restart.*
run 20000
write_restart restart.*
run 20000
write_restart restart.*
run 20000
write_restart restart.*
run 20000
write_restart restart.*
run 20000
write_restart restart.*
run 20000
write_restart restart.*
run 20000
write_restart restart.*
run 20000
write_restart restart.*
run 20000
write_restart restart.*
run 20000
write_restart restart.*
run 20000
write_restart restart.*
run 20000
write_restart restart.*
run 20000
write_restart restart.*
run 20000
write_restart restart.*
run 20000
write_restart restart.*
run 20000
write_restart restart.*
run 20000
write_restart restart.*
run 20000
write_restart restart.*
run 20000
write_restart restart.*
run 20000
write_restart restart.*
run 20000
write_restart restart.*
run 20000
write_restart restart.*
run 20000
write_restart restart.*
run 20000
write_restart restart.*
run 20000
write_restart restart.*
run 20000
write_restart restart.*
run 20000
write_restart restart.*
run 20000
write_restart restart.*
run 20000
write_restart restart.*
run 20000
write_restart restart.*
run 20000
write_restart restart.*
run 20000
write_restart restart.*
run 20000
write_restart restart.*
run 20000
write_restart restart.*
run 20000
write_restart restart.*
run 20000
write_restart restart.*
run 20000
write_restart restart.*
run 20000
write_restart restart.*
run 20000
write_restart restart.*
run 20000
write_restart restart.*
run 20000
write_restart restart.*
run 20000
write_restart restart.*
run 20000
write_restart restart.*
run 20000
write_restart restart.*
run 20000
write_restart restart.*
run 20000
write_restart restart.*
run 20000
write_restart restart.*
run 20000
write_restart restart.*
run 20000
write_restart restart.*
run 20000
write_restart restart.*
run 20000
write_restart restart.*
run 20000
write_restart restart.*
run 20000
write_restart restart.*
run 20000
write_restart restart.*
run 20000
write_restart restart.*
run 20000
write_restart restart.*
run 20000
write_restart restart.*
run 20000
write_restart restart.*
run 20000
write_restart restart.*
run 20000
write_restart restart.*
run 20000
write_restart restart.*
run 20000
write_restart restart.*
run 20000
write_restart restart.*
run 20000
write_restart restart.*
run 20000
write_restart restart.*
run 20000
write_restart restart.*
run 20000
write_restart restart.*
run 20000
write_restart restart.*
run 20000
write_restart restart.*
run 20000
write_restart restart.*
run 20000
write_restart restart.*
run 20000
write_restart restart.*
run 20000
write_restart restart.*
run 20000
write_restart restart.*
run 20000
write_restart restart.*
run 20000
write_restart restart.*
run 20000
write_restart restart.*
run 20000
write_restart restart.*
run 20000
write_restart restart.*
run 20000
write_restart restart.*
run 20000
write_restart restart.*
run 20000
write_restart restart.*
run 20000
write_restart restart.*
run 20000
write_restart restart.*
run 20000
write_restart restart.*
run 20000
write_restart restart.*
run 20000
write_restart restart.*
run 20000
write_restart restart.*
run 20000
write_restart restart.*
run 20000
write_restart restart.*
run 20000
write_restart restart.*
run 20000
write_restart restart.*
run 20000
write_restart restart.*
run 20000
write_restart restart.*
run 20000
write_restart restart.*
run 20000
write_restart restart.*
run 20000
write_restart restart.*
run 20000
write_restart restart.*
run 20000
write_restart restart.*
run 20000
write_restart restart.*
run 20000
write_restart restart.*
run 20000
write_restart restart.*
run 20000
write_restart restart.*
run 20000
write_restart restart.*
run 20000
write_restart restart.*
run 20000
write_restart restart.*
run 20000
write_restart restart.*
run 20000
write_restart restart.*
run 20000
write_restart restart.*
run 20000
write_restart restart.*
run 20000
write_restart restart.*
run 20000
write_restart restart.*
run 20000
write_restart restart.*
run 20000
write_restart restart.*
run 20000
write_restart restart.*
run 20000
write_restart restart.*
run 20000
write_restart restart.*
run 20000
write_restart restart.*
run 20000
write_restart restart.*
run 20000
write_restart restart.*
run 20000
write_restart restart.*
run 20000
write_restart restart.*
run 20000
write_restart restart.*
run 20000
write_restart restart.*
run 20000
write_restart restart.*
run 20000
write_restart restart.*
run 20000
write_restart restart.*
run 20000
write_restart restart.*
run 20000
write_restart restart.*
run 20000
write_restart restart.*
run 20000
write_restart restart.*
run 20000
write_restart restart.*
run 20000
write_restart restart.*
run 20000
write_restart restart.*
run 20000
write_restart restart.*
run 20000
write_restart restart.*
run 20000
write_restart restart.*
run 20000
write_restart restart.*
run 20000
write_restart restart.*
run 20000
write_restart restart.*
run 20000
write_restart restart.*
run 20000
write_restart restart.*
run 20000
write_restart restart.*
run 20000
write_restart restart.*
run 20000
write_restart restart.*
run 20000
write_restart restart.*
run 20000
write_restart restart.*
run 20000
write_restart restart.*
run 20000
write_restart restart.*
run 20000
write_restart restart.*
run 20000
write_restart restart.*
run 20000
write_restart restart.*
run 20000
write_restart restart.*
run 20000
write_restart restart.*
run 20000
write_restart restart.*
run 20000
write_restart restart.*
run 20000
write_restart restart.*
run 20000
write_restart restart.*
run 20000
write_restart restart.*
run 20000
write_restart restart.*
run 20000
write_restart restart.*
run 20000
write_restart restart.*
run 20000
write_restart restart.*
run 20000
write_restart restart.*
run 20000
write_restart restart.*
run 20000
write_restart restart.*
run 20000
write_restart restart.*
run 20000
write_restart restart.*
run 20000
write_restart restart.*
run 20000
write_restart restart.*
run 20000
write_restart restart.*
run 20000
write_restart restart.*
run 20000
write_restart restart.*
run 20000
write_restart restart.*
run 20000
write_restart restart.*
run 20000
write_restart restart.*
run 20000
write_restart restart.*
run 20000
write_restart restart.*
run 20000
write_restart restart.*
run 20000
write_restart restart.*
run 20000
write_restart restart.*
run 20000
write_restart restart.*
run 20000
write_restart restart.*
run 20000
write_restart restart.*
run 20000
write_restart restart.*
run 20000
write_restart restart.*
run 20000
write_restart restart.*
run 20000
write_restart restart.*
run 20000
write_restart restart.*
run 20000
write_restart restart.*
run 20000
write_restart restart.*
run 20000
write_restart restart.*
run 20000
write_restart restart.*
run 20000
write_restart restart.*
run 20000
write_restart restart.*
run 20000
write_restart restart.*
run 20000
write_restart restart.*
run 20000
write_restart restart.*
run 20000
write_restart restart.*
run 20000
write_restart restart.*
run 20000
write_restart restart.*
run 20000
write_restart restart.*
run 20000
write_restart restart.*
run 20000
write_restart restart.*
run 20000
write_restart restart.*
run 20000
write_restart restart.*
run 20000
write_restart restart.*
run 20000
write_restart restart.*
run 20000
write_restart restart.*
run 20000
write_restart restart.*
run 20000
write_restart restart.*
run 20000
write_restart restart.*
run 20000
write_restart restart.*
run 20000
write_restart restart.*
run 20000
write_restart restart.*
run 20000
write_restart restart.*
run 20000
write_restart restart.*
run 20000
write_restart restart.*
run 20000

write_restart {Restart_Out}
