units		real
atom_style	full
pair_style	lj/cut/coul/cut 10.0 11.6
bond_style	harmonic
angle_style	harmonic
dihedral_style	opls
special_bonds	lj/coul 0 0 0.5
improper_style	cvff
pair_modify mix geometric
dielectric 4.9
read_data P3HT_Methylthiophene_Phi_30_Theta_60_Methylthiophene_Internal_Energy_Interring_Angles_Only.data

timestep 1.0

thermo 10
thermo_style custom step temp density press evdwl ecoul ebond eangle edihed eimp etotal pe
neighbor 2.0 bin
run_style verlet
run 0