$molecule
	0 1
C	-0.236890	-0.535395	0.015308
C	0.058510	0.276105	1.114708
C	0.531810	1.576505	0.792008
H	-0.067590	-0.070395	2.151408
C	0.607310	1.783905	-0.597192
S	0.085410	0.350205	-1.471492
C	0.903910	2.598705	1.829908
H	0.758310	2.198705	2.852008
H	0.289110	3.518705	1.741508
H	1.966310	2.908305	1.741508
C	-0.236890	-1.976095	0.015308
H	0.826710	-1.976295	-0.172092
H	-0.379090	-2.679895	-0.791492
H	-0.072390	-2.494995	0.948008
H	0.932010	2.675905	-1.146292
$end

$rem
	JOBTYPE		SP
	EXCHANGE	HF
	CORRELATION	pRIMP2
	BASIS		cc-pvtz
	METHOD		rimp2
	AUX_BASIS	rimp2-cc-pvtz
	SOLVENT_METHOD	PCM
	PURECART	11111
	SYMMETRY	false
	MEM_TOTAL	110000
	SCF_CONVERGENCE = 6
	THRESH=10
$end



$solvent
dielectric 4.90
$end