$molecule
	0 1
C	-0.113134	-0.566010	0.013624
C	0.036866	0.284490	1.113024
C	0.277166	1.647390	0.790324
H	-0.027234	-0.078710	2.149724
C	0.315566	1.864690	-0.598876
S	0.050566	0.362090	-1.473176
C	0.466066	2.718590	1.828224
H	0.392166	2.299390	2.850324
H	-0.299134	3.517890	1.739824
H	1.458566	3.207890	1.739824
C	-0.113134	-2.006710	0.013624
H	-1.176734	-2.006410	0.201024
H	-0.255334	-2.710510	-0.793176
H	0.051366	-2.525610	0.946324
H	0.480366	2.799390	-1.147976
$end

$rem
	JOBTYPE		SP
	EXCHANGE	HF
	CORRELATION	pRIMP2
	BASIS		cc-pvtz
	METHOD		rimp2
	AUX_BASIS	rimp2-cc-pvtz
	SOLVENT_METHOD	PCM
	PURECART	11111
	SYMMETRY	false
	MEM_TOTAL	110000
	SCF_CONVERGENCE = 6
	THRESH=10
$end



$solvent
dielectric 4.90
$end