$molecule
	0 1
C	-0.004896	-0.576309	0.015308
C	-0.004896	0.287291	1.114708
C	-0.004796	1.671191	0.792008
H	-0.004896	-0.081509	2.151408
C	-0.004796	1.891891	-0.597192
S	-0.004896	0.366091	-1.471492
C	-0.004796	2.758991	1.829908
H	-0.004796	2.333291	2.852008
H	-0.897196	3.413291	1.741508
H	0.887604	3.413191	1.741508
C	-0.004896	-2.017009	0.015308
H	1.058704	-2.017209	-0.172092
H	-0.147096	-2.720809	-0.791492
H	0.159604	-2.535909	0.948008
H	-0.004796	2.841091	-1.146292
$end

$rem
	JOBTYPE		SP
	EXCHANGE	HF
	CORRELATION	pRIMP2
	BASIS		cc-pvtz
	METHOD		rimp2
	AUX_BASIS	rimp2-cc-pvtz
	SOLVENT_METHOD	PCM
	PURECART	11111
	SYMMETRY	false
	MEM_TOTAL	110000
	SCF_CONVERGENCE = 6
	THRESH=10
$end



$solvent
dielectric 4.90
$end