$molecule
	0 1
C	-0.227334	-0.535397	0.013624
C	0.068066	0.276103	1.113024
C	0.541366	1.576503	0.790324
H	-0.058034	-0.070397	2.149724
C	0.616866	1.783903	-0.598876
S	0.094966	0.350203	-1.473176
C	0.913466	2.598703	1.828224
H	0.767866	2.198703	2.850324
H	0.298666	3.518703	1.739824
H	1.975866	2.908303	1.739824
C	-0.227334	-1.976097	0.013624
H	-1.290934	-1.975797	0.201024
H	-0.369534	-2.679897	-0.793176
H	-0.062834	-2.494997	0.946324
H	0.941566	2.675903	-1.147976
$end

$rem
	JOBTYPE		SP
	EXCHANGE	HF
	CORRELATION	pRIMP2
	BASIS		cc-pvtz
	METHOD		rimp2
	AUX_BASIS	rimp2-cc-pvtz
	SOLVENT_METHOD	PCM
	PURECART	11111
	SYMMETRY	false
	MEM_TOTAL	110000
	SCF_CONVERGENCE = 6
	THRESH=10
$end



$solvent
dielectric 4.90
$end