$molecule
	0 1
C	-0.122690	-0.566007	0.015308
C	0.027310	0.284493	1.114708
C	0.267610	1.647393	0.792008
H	-0.036790	-0.078707	2.151408
C	0.306010	1.864693	-0.597192
S	0.041010	0.362093	-1.471492
C	0.456510	2.718593	1.829908
H	0.382610	2.299393	2.852008
H	-0.308690	3.517893	1.741508
H	1.449010	3.207893	1.741508
C	-0.122690	-2.006707	0.015308
H	0.940910	-2.006907	-0.172092
H	-0.264890	-2.710507	-0.791492
H	0.041810	-2.525607	0.948008
H	0.470810	2.799393	-1.146292
$end

$rem
	JOBTYPE		SP
	EXCHANGE	HF
	CORRELATION	pRIMP2
	BASIS		cc-pvtz
	METHOD		rimp2
	AUX_BASIS	rimp2-cc-pvtz
	SOLVENT_METHOD	PCM
	PURECART	11111
	SYMMETRY	false
	MEM_TOTAL	110000
	SCF_CONVERGENCE = 6
	THRESH=10
$end



$solvent
dielectric 4.90
$end