$molecule
	0 1
C	-0.344055	-0.485419	0.015308
C	0.087745	0.262481	1.114708
C	0.779745	1.460981	0.792008
H	-0.096655	-0.056919	2.151408
C	0.890045	1.652081	-0.597192
S	0.127145	0.330681	-1.471492
C	1.323645	2.402981	1.829908
H	1.110845	2.034381	2.852008
H	0.877945	3.415781	1.741508
H	2.423645	2.523381	1.741508
C	-0.344055	-1.926119	0.015308
H	0.719545	-1.926319	-0.172092
H	-0.486255	-2.629919	-0.791492
H	-0.179555	-2.445019	0.948008
H	1.364745	2.474081	-1.146292
$end

$rem
	JOBTYPE		SP
	EXCHANGE	HF
	CORRELATION	pRIMP2
	BASIS		cc-pvtz
	METHOD		rimp2
	AUX_BASIS	rimp2-cc-pvtz
	SOLVENT_METHOD	PCM
	PURECART	11111
	SYMMETRY	false
	MEM_TOTAL	110000
	SCF_CONVERGENCE = 6
	THRESH=10
$end



$solvent
dielectric 4.90
$end