$molecule
	0 1
C	0.004660	-0.576312	0.013624
C	0.004660	0.287288	1.113024
C	0.004760	1.671188	0.790324
H	0.004660	-0.081512	2.149724
C	0.004760	1.891888	-0.598876
S	0.004660	0.366088	-1.473176
C	0.004760	2.758988	1.828224
H	0.004760	2.333288	2.850324
H	-0.887640	3.413288	1.739824
H	0.897160	3.413188	1.739824
C	0.004660	-2.017012	0.013624
H	-1.058940	-2.016712	0.201024
H	-0.137540	-2.720812	-0.793176
H	0.169160	-2.535912	0.946324
H	0.004760	2.841088	-1.147976
$end

$rem
	JOBTYPE		SP
	EXCHANGE	HF
	CORRELATION	pRIMP2
	BASIS		cc-pvtz
	METHOD		rimp2
	AUX_BASIS	rimp2-cc-pvtz
	SOLVENT_METHOD	PCM
	PURECART	11111
	SYMMETRY	false
	MEM_TOTAL	110000
	SCF_CONVERGENCE = 6
	THRESH=10
$end



$solvent
dielectric 4.90
$end