$molecule
	0 1
C	-0.334499	-0.485421	0.013624
C	0.097301	0.262479	1.113024
C	0.789301	1.460979	0.790324
H	-0.087099	-0.056921	2.149724
C	0.899601	1.652079	-0.598876
S	0.136701	0.330679	-1.473176
C	1.333201	2.402979	1.828224
H	1.120401	2.034379	2.850324
H	0.887501	3.415779	1.739824
H	2.433201	2.523379	1.739824
C	-0.334499	-1.926121	0.013624
H	-1.398099	-1.925821	0.201024
H	-0.476699	-2.629921	-0.793176
H	-0.169999	-2.445021	0.946324
H	1.374301	2.474079	-1.147976
$end

$rem
	JOBTYPE		SP
	EXCHANGE	HF
	CORRELATION	pRIMP2
	BASIS		cc-pvtz
	METHOD		rimp2
	AUX_BASIS	rimp2-cc-pvtz
	SOLVENT_METHOD	PCM
	PURECART	11111
	SYMMETRY	false
	MEM_TOTAL	110000
	SCF_CONVERGENCE = 6
	THRESH=10
$end



$solvent
dielectric 4.90
$end