! RKS B3LYP 6-31+G** NormalSCF Opt NOSOSCF CHELPG PAL8

*xyz 0 1
H -25.84235 -0.07402 1.34308
C -25.00831 0.17269 0.67907
C -23.73875 0.60138 1.44412
H -25.34496 0.97252 0.00816
H -24.82390 -0.72016 0.07705
C -24.03103 1.86482 2.32082
C -25.28458 2.05645 2.96132
C -25.55659 3.17410 3.77853
C -24.56386 4.12181 4.00399
C -23.31427 3.96030 3.41290
C -23.05040 2.83727 2.60215
H -26.09390 1.33948 2.85751
H -26.53008 3.30537 4.24789
H -22.54039 4.70281 3.59458
H -22.03896 2.76139 2.21777
S -24.90527 5.57323 5.04629
O -26.29795 5.88713 4.73057
O -23.93419 6.56080 4.58268
O -24.67195 5.04859 6.38914
C -22.56567 0.69540 0.37329
H -23.49569 -0.19113 2.16480
C -21.50956 -0.48614 0.33166
H -22.01248 1.61017 0.59591
H -22.97421 0.88109 -0.62666
C -21.36964 -1.44035 -0.90706
H -21.70410 -1.16032 1.17540
C -22.40888 -2.31126 -1.31037
C -22.19388 -3.34159 -2.26556
C -20.12065 -1.64412 -1.56081
C -19.89757 -2.66671 -2.50243
C -20.93188 -3.52868 -2.83750
H -23.39481 -2.25490 -0.85897
H -22.99142 -4.02977 -2.54406
H -19.25033 -1.03933 -1.31278
H -18.91062 -2.81081 -2.93765
S -20.62844 -4.90691 -3.99532
O -19.30226 -4.62972 -4.53086
O -21.72536 -4.76327 -4.95427
O -20.71403 -6.07253 -3.11734
C -20.10548 0.17269 0.67907
C -18.83592 0.60138 1.44412
H -20.44213 0.97252 0.00816
H -19.92107 -0.72016 0.07705
C -19.12820 1.86482 2.32082
C -20.38175 2.05645 2.96132
C -20.65376 3.17410 3.77853
C -19.66103 4.12181 4.00399
C -18.41144 3.96030 3.41290
C -18.14757 2.83727 2.60215
H -21.19107 1.33948 2.85751
H -21.62725 3.30537 4.24789
H -17.63756 4.70281 3.59458
H -17.13613 2.76139 2.21777
S -20.00244 5.57323 5.04629
O -21.39512 5.88713 4.73057
O -19.03136 6.56080 4.58268
O -19.76912 5.04859 6.38914
C -17.66284 0.69540 0.37329
H -18.59286 -0.19113 2.16480
C -16.60673 -0.48614 0.33166
H -17.10965 1.61017 0.59591
H -18.07138 0.88109 -0.62666
C -16.46681 -1.44035 -0.90706
H -16.80127 -1.16032 1.17540
C -17.50605 -2.31126 -1.31037
C -17.29105 -3.34159 -2.26556
C -15.21782 -1.64412 -1.56081
C -14.99474 -2.66671 -2.50243
C -16.02905 -3.52868 -2.83750
H -18.49198 -2.25490 -0.85897
H -18.08859 -4.02977 -2.54406
H -14.34750 -1.03933 -1.31278
H -14.00779 -2.81081 -2.93765
S -15.72561 -4.90691 -3.99532
O -14.39943 -4.62972 -4.53086
O -16.82253 -4.76327 -4.95427
O -15.81120 -6.07253 -3.11734
C -15.20265 0.17269 0.67907
C -13.93309 0.60138 1.44412
H -15.53930 0.97252 0.00816
H -15.01824 -0.72016 0.07705
C -14.22537 1.86482 2.32082
C -15.47892 2.05645 2.96132
C -15.75093 3.17410 3.77853
C -14.75820 4.12181 4.00399
C -13.50861 3.96030 3.41290
C -13.24474 2.83727 2.60215
H -16.28824 1.33948 2.85751
H -16.72442 3.30537 4.24789
H -12.73473 4.70281 3.59458
H -12.23330 2.76139 2.21777
S -15.09961 5.57323 5.04629
O -16.49229 5.88713 4.73057
O -14.12853 6.56080 4.58268
O -14.86629 5.04859 6.38914
C -12.76001 0.69540 0.37329
H -13.69003 -0.19113 2.16480
C -11.70390 -0.48614 0.33166
H -12.20682 1.61017 0.59591
H -13.16855 0.88109 -0.62666
C -11.56398 -1.44035 -0.90706
H -11.89844 -1.16032 1.17540
C -12.60322 -2.31126 -1.31037
C -12.38822 -3.34159 -2.26556
C -10.31499 -1.64412 -1.56081
C -10.09191 -2.66671 -2.50243
C -11.12622 -3.52868 -2.83750
H -13.58915 -2.25490 -0.85897
H -13.18576 -4.02977 -2.54406
H -9.44467 -1.03933 -1.31278
H -9.10496 -2.81081 -2.93765
S -10.82278 -4.90691 -3.99532
O -9.49660 -4.62972 -4.53086
O -11.91970 -4.76327 -4.95427
O -10.90837 -6.07253 -3.11734
C -10.29982 0.17269 0.67907
C -9.03026 0.60138 1.44412
H -10.63647 0.97252 0.00816
H -10.11541 -0.72016 0.07705
C -9.32254 1.86482 2.32082
C -10.57609 2.05645 2.96132
C -10.84810 3.17410 3.77853
C -9.85537 4.12181 4.00399
C -8.60578 3.96030 3.41290
C -8.34191 2.83727 2.60215
H -11.38541 1.33948 2.85751
H -11.82159 3.30537 4.24789
H -7.83190 4.70281 3.59458
H -7.33047 2.76139 2.21777
S -10.19678 5.57323 5.04629
O -11.58946 5.88713 4.73057
O -9.22570 6.56080 4.58268
O -9.96346 5.04859 6.38914
C -7.85718 0.69540 0.37329
H -8.78720 -0.19113 2.16480
C -6.80107 -0.48614 0.33166
H -7.30399 1.61017 0.59591
H -8.26572 0.88109 -0.62666
C -6.66115 -1.44035 -0.90706
H -6.99561 -1.16032 1.17540
C -7.70039 -2.31126 -1.31037
C -7.48539 -3.34159 -2.26556
C -5.41216 -1.64412 -1.56081
C -5.18908 -2.66671 -2.50243
C -6.22339 -3.52868 -2.83750
H -8.68632 -2.25490 -0.85897
H -8.28293 -4.02977 -2.54406
H -4.54184 -1.03933 -1.31278
H -4.20213 -2.81081 -2.93765
S -5.91995 -4.90691 -3.99532
O -4.59377 -4.62972 -4.53086
O -7.01687 -4.76327 -4.95427
O -6.00554 -6.07253 -3.11734
C -5.39699 0.17269 0.67907
C -4.17994 1.07147 0.77033
H -5.36088 -0.60709 1.44680
H -5.42899 -0.33490 -0.29054
O -3.00882 0.26669 0.64507
H -4.17082 1.58519 1.73789
H -4.20626 1.81670 -0.03219
C -1.82438 1.06176 0.70588
C -0.59661 0.15997 0.64329
H -1.80725 1.64279 1.63569
H -1.80784 1.77015 -0.13095
O 0.58003 0.96546 0.71894
H -0.60112 -0.41355 -0.29119
H -0.61769 -0.55438 1.47502
H 4.53033 2.64260 3.43028
C 3.05343 0.84302 1.19389
H 3.64889 1.67490 -3.61686
C 1.75888 0.17269 0.67907
H 1.89051 -0.92044 0.53607
H 1.50379 0.62039 -0.31202
C 2.46755 2.37193 1.56095
O 2.88472 3.29214 0.86621
O 1.44181 2.68458 2.55119
C 0.36720 3.71834 2.66832
C 0.04425 4.68044 4.03397
H -0.57325 3.13462 2.56549
H 0.40631 4.37760 1.77768
O -1.24670 5.47783 4.12552
H 0.89909 5.37961 4.13768
H 0.05432 3.99229 4.90471
C -1.40099 6.48458 5.24917
C -2.88957 7.23750 5.60153
H -0.69966 7.31482 5.02936
H -1.07534 5.99964 6.19236
O -2.97241 8.29387 6.68525
H -3.60410 6.42524 5.85872
H -3.24306 7.69978 4.65505
C -4.31421 8.92614 6.99623
C -4.42648 10.16156 8.15816
H -5.00106 8.11925 7.33170
H -4.72752 9.34347 6.05284
O -5.74563 10.81280 8.51180
H -3.74341 10.96423 7.81173
H -4.00934 9.73434 9.09337
C -5.71407 11.91423 9.54850
O -7.03821 13.81671 11.06712
C -8.32272 14.47672 11.49849
C -8.28236 15.73906 12.61012
H -8.97950 13.69796 11.94147
H -8.83034 14.87679 10.59491
O -9.55813 16.39212 13.05465
H -7.63659 16.52742 12.16923
H -7.77561 15.34517 13.51598
C -9.41973 17.51841 14.03520
C -10.77942 18.29030 14.61303
H -8.79821 18.31166 13.56852
H -8.88501 17.13878 14.93113
O -10.59290 19.40537 15.58308
H -11.41632 17.51861 15.09587
H -11.32939 18.69116 13.73449
C -11.83951 20.04059 16.09066
C -11.69233 21.28170 17.16090
H -12.45509 19.26790 16.59858
H -12.41789 20.44140 15.23031
O -12.94036 21.88428 17.67007
H -11.09863 22.07997 16.66517
H -11.11540 20.90192 18.03081
C -12.73098 23.00092 18.61031
C -14.05299 23.67712 19.25690
H -12.18931 23.82047 18.09012
H -12.11660 22.65143 19.46758
O -13.78574 24.78286 20.17234
H -14.61170 22.88497 19.80133
H -14.68897 24.05821 18.42801
C -14.98061 25.27264 20.84911
C -14.73589 26.52430 21.79792
H -15.40097 24.46951 21.49225
H -15.74587 25.58626 20.10461
O -15.92263 26.94010 22.50761
H -14.35841 27.36452 21.17189
H -13.96130 26.25008 22.54673
C -15.71719 28.19528 23.18344
C -16.84915 28.55106 24.19617
H -15.68467 29.02042 22.43755
H -14.77016 28.18588 23.76924
O -16.58660 29.82454 24.77423
H -16.88504 27.76948 24.98919
H -17.82301 28.58891 23.65836
C -17.50781 30.11769 25.81360
H -18.56547 29.92251 25.52648
H -17.45720 31.20642 26.04364
H -17.24122 29.58147 26.75066
C -7.12281 12.71423 10.04176
H -7.58419 13.14147 9.12596
H -7.81221 11.93649 10.43477
H -5.03658 12.70857 9.17256
H -5.27011 11.49322 10.47458
C 4.26002 0.35249 0.03893
H 3.31620 0.35163 2.15523
C 5.63166 -0.66733 0.11613
H 4.47423 1.21198 -0.62783
H 3.69321 -0.31024 -0.63995
C 6.12266 -1.50748 -1.26282
H 5.39679 -1.45239 0.86722
O 7.20299 -2.47675 -1.48023
C 7.38059 -3.37537 -2.66747
O 5.42305 -1.27641 -2.23701
C 8.70620 -4.40006 -3.04683
H 7.27378 -2.73014 -3.56079
H 6.50802 -4.05542 -2.64164
O 8.61544 -5.31020 -4.27616
H 8.89151 -5.03796 -2.15494
H 9.59705 -3.73997 -3.15715
C 9.78128 -6.19106 -4.73326
C 9.58681 -7.29488 -6.06060
H 10.12162 -6.78486 -3.85642
H 10.62227 -5.51165 -4.99750
O 10.67160 -8.22423 -6.63887
H 9.24040 -6.65283 -6.89468
H 8.74366 -7.94236 -5.74979
C 10.31439 -9.15865 -7.81303
C 11.41088 -10.27508 -8.60410
H 9.93326 -8.50431 -8.62289
H 9.47072 -9.78420 -7.46011
O 10.99477 -11.20566 -9.77194
H 11.81062 -10.92139 -7.79367
H 12.25984 -9.65314 -8.96216
C 11.98894 -12.18205 -10.45158
C 11.55746 -13.27246 -11.76923
H 12.40532 -12.82676 -9.64850
H 12.83249 -11.56694 -10.83229
O 12.50735 -14.27231 -12.48528
H 11.14831 -12.60868 -12.55770
H 10.71484 -13.87193 -11.36970
C 11.99954 -15.18242 -13.63815
C 12.95993 -16.36315 -14.53244
H 11.59069 -14.50478 -14.41521
H 11.14925 -15.76345 -13.22702
O 12.41442 -17.25605 -15.67774
H 13.37831 -17.04955 -13.76639
H 13.81615 -15.79459 -14.95326
C 13.31244 -18.27742 -16.42263
C 12.76521 -19.31899 -17.72243
H 13.72860 -18.96655 -15.65792
H 14.16829 -17.71215 -16.84829
O 13.65594 -20.33533 -18.46139
H 12.35609 -18.64068 -18.49926
H 11.91357 -19.89583 -17.30691
C 13.06559 -21.19875 -19.59017
C 13.96118 -22.37233 -20.48779
H 12.66069 -20.50970 -20.35986
H 12.21234 -21.76598 -19.16453
O 13.31350 -23.19276 -21.59258
H 14.37549 -23.09551 -19.75356
H 14.82232 -21.84170 -20.94689
C 14.15751 -24.21041 -22.34020
C 13.49984 -25.15215 -23.57753
H 14.56258 -24.94037 -21.60751
H 15.01743 -23.68342 -22.80575
O 14.36462 -26.14446 -24.28703
H 13.10113 -24.45928 -24.34854
H 12.64417 -25.71571 -23.14910
C 13.69643 -26.92903 -25.36668
C 14.56499 -28.04492 -26.19533
H 13.31009 -26.23265 -26.14113
H 12.84148 -27.49240 -24.93598
O 13.83024 -28.76935 -27.23747
H 14.95987 -28.79341 -25.47364
H 15.42758 -27.53532 -26.67841
C 14.65305 -29.75177 -27.93843
C 13.93137 -30.58339 -29.08122
H 15.03921 -30.51058 -27.22253
H 15.51096 -29.24934 -28.43759
O 14.84908 -31.50612 -29.67602
H 13.55359 -29.89277 -29.86861
H 13.07790 -31.15312 -28.64952
C 14.24307 -32.27374 -30.71470
H 13.40083 -32.90242 -30.34874
H 14.99102 -32.99570 -31.12317
H 13.93424 -31.64890 -31.58230
H 2.93004 -7.71497 -8.39054
H 9.56809 2.64260 3.43028
C 8.09119 0.84302 1.19389
H 8.68665 1.67490 -3.61686
C 6.79664 0.17269 0.67907
H 6.92827 -0.92044 0.53607
H 6.54155 0.62039 -0.31202
C 7.50531 2.37193 1.56095
O 7.92248 3.29214 0.86621
O 6.47957 2.68458 2.55119
C 5.40496 3.71834 2.66832
C 5.08201 4.68044 4.03397
H 4.46451 3.13462 2.56549
H 5.44407 4.37760 1.77768
O 3.79106 5.47783 4.12552
H 5.93685 5.37961 4.13768
H 5.09208 3.99229 4.90471
C 3.63677 6.48458 5.24917
C 2.14819 7.23750 5.60153
H 4.33810 7.31482 5.02936
H 3.96242 5.99964 6.19236
O 2.06535 8.29387 6.68525
H 1.43366 6.42524 5.85872
H 1.79470 7.69978 4.65505
C 0.72355 8.92614 6.99623
C 0.61128 10.16156 8.15816
H 0.03670 8.11925 7.33170
H 0.31024 9.34347 6.05284
O -0.70787 10.81280 8.51180
H 1.29435 10.96423 7.81173
H 1.02842 9.73434 9.09337
C -0.67631 11.91423 9.54850
O -2.00045 13.81671 11.06712
C -3.28496 14.47672 11.49849
C -3.24460 15.73906 12.61012
H -3.94174 13.69796 11.94147
H -3.79258 14.87679 10.59491
O -4.52037 16.39212 13.05465
H -2.59883 16.52742 12.16923
H -2.73785 15.34517 13.51598
C -4.38197 17.51841 14.03520
C -5.74166 18.29030 14.61303
H -3.76045 18.31166 13.56852
H -3.84725 17.13878 14.93113
O -5.55514 19.40537 15.58308
H -6.37856 17.51861 15.09587
H -6.29163 18.69116 13.73449
C -6.80175 20.04059 16.09066
C -6.65457 21.28170 17.16090
H -7.41733 19.26790 16.59858
H -7.38013 20.44140 15.23031
O -7.90260 21.88428 17.67007
H -6.06087 22.07997 16.66517
H -6.07764 20.90192 18.03081
C -7.69322 23.00092 18.61031
C -9.01523 23.67712 19.25690
H -7.15155 23.82047 18.09012
H -7.07884 22.65143 19.46758
O -8.74798 24.78286 20.17234
H -9.57394 22.88497 19.80133
H -9.65121 24.05821 18.42801
C -9.94285 25.27264 20.84911
C -9.69813 26.52430 21.79792
H -10.36321 24.46951 21.49225
H -10.70811 25.58626 20.10461
O -10.88487 26.94010 22.50761
H -9.32065 27.36452 21.17189
H -8.92354 26.25008 22.54673
C -10.67943 28.19528 23.18344
C -11.81139 28.55106 24.19617
H -10.64691 29.02042 22.43755
H -9.73240 28.18588 23.76924
O -11.54884 29.82454 24.77423
H -11.84728 27.76948 24.98919
H -12.78525 28.58891 23.65836
C -12.47005 30.11769 25.81360
H -13.52771 29.92251 25.52648
H -12.41944 31.20642 26.04364
H -12.20346 29.58147 26.75066
C -2.08505 12.71423 10.04176
H -2.54643 13.14147 9.12596
H -2.77445 11.93649 10.43477
H 0.00118 12.70857 9.17256
H -0.23235 11.49322 10.47458
C 9.29778 0.35249 0.03893
H 8.35396 0.35163 2.15523
C 10.66942 -0.66733 0.11613
H 9.51199 1.21198 -0.62783
H 8.73097 -0.31024 -0.63995
C 11.16042 -1.50748 -1.26282
H 10.43455 -1.45239 0.86722
O 12.24075 -2.47675 -1.48023
C 12.41835 -3.37537 -2.66747
O 10.46081 -1.27641 -2.23701
C 13.74396 -4.40006 -3.04683
H 12.31154 -2.73014 -3.56079
H 11.54578 -4.05542 -2.64164
O 13.65320 -5.31020 -4.27616
H 13.92927 -5.03796 -2.15494
H 14.63481 -3.73997 -3.15715
C 14.81904 -6.19106 -4.73326
C 14.62457 -7.29488 -6.06060
H 15.15938 -6.78486 -3.85642
H 15.66003 -5.51165 -4.99750
O 15.70936 -8.22423 -6.63887
H 14.27816 -6.65283 -6.89468
H 13.78142 -7.94236 -5.74979
C 15.35215 -9.15865 -7.81303
C 16.44864 -10.27508 -8.60410
H 14.97102 -8.50431 -8.62289
H 14.50848 -9.78420 -7.46011
O 16.03253 -11.20566 -9.77194
H 16.84838 -10.92139 -7.79367
H 17.29760 -9.65314 -8.96216
C 17.02670 -12.18205 -10.45158
C 16.59522 -13.27246 -11.76923
H 17.44308 -12.82676 -9.64850
H 17.87025 -11.56694 -10.83229
O 17.54511 -14.27231 -12.48528
H 16.18607 -12.60868 -12.55770
H 15.75260 -13.87193 -11.36970
C 17.03730 -15.18242 -13.63815
C 17.99769 -16.36315 -14.53244
H 16.62845 -14.50478 -14.41521
H 16.18701 -15.76345 -13.22702
O 17.45218 -17.25605 -15.67774
H 18.41607 -17.04955 -13.76639
H 18.85391 -15.79459 -14.95326
C 18.35020 -18.27742 -16.42263
C 17.80297 -19.31899 -17.72243
H 18.76636 -18.96655 -15.65792
H 19.20605 -17.71215 -16.84829
O 18.69370 -20.33533 -18.46139
H 17.39385 -18.64068 -18.49926
H 16.95133 -19.89583 -17.30691
C 18.10335 -21.19875 -19.59017
C 18.99894 -22.37233 -20.48779
H 17.69845 -20.50970 -20.35986
H 17.25010 -21.76598 -19.16453
O 18.35126 -23.19276 -21.59258
H 19.41325 -23.09551 -19.75356
H 19.86008 -21.84170 -20.94689
C 19.19527 -24.21041 -22.34020
C 18.53760 -25.15215 -23.57753
H 19.60034 -24.94037 -21.60751
H 20.05519 -23.68342 -22.80575
O 19.40238 -26.14446 -24.28703
H 18.13889 -24.45928 -24.34854
H 17.68193 -25.71571 -23.14910
C 18.73419 -26.92903 -25.36668
C 19.60275 -28.04492 -26.19533
H 18.34785 -26.23265 -26.14113
H 17.87924 -27.49240 -24.93598
O 18.86800 -28.76935 -27.23747
H 19.99763 -28.79341 -25.47364
H 20.46534 -27.53532 -26.67841
C 19.69081 -29.75177 -27.93843
C 18.96913 -30.58339 -29.08122
H 20.07697 -30.51058 -27.22253
H 20.54872 -29.24934 -28.43759
O 19.88684 -31.50612 -29.67602
H 18.59135 -29.89277 -29.86861
H 18.11566 -31.15312 -28.64952
C 19.28083 -32.27374 -30.71470
H 18.43859 -32.90242 -30.34874
H 20.02878 -32.99570 -31.12317
H 18.97200 -31.64890 -31.58230
H 7.96780 -7.71497 -8.39054
H 14.60585 2.64260 3.43028
C 13.12895 0.84302 1.19389
H 13.72441 1.67490 -3.61686
C 11.83440 0.17269 0.67907
H 11.96603 -0.92044 0.53607
H 11.57931 0.62039 -0.31202
C 12.54307 2.37193 1.56095
O 12.96024 3.29214 0.86621
O 11.51733 2.68458 2.55119
C 10.44272 3.71834 2.66832
C 10.11977 4.68044 4.03397
H 9.50227 3.13462 2.56549
H 10.48183 4.37760 1.77768
O 8.82882 5.47783 4.12552
H 10.97461 5.37961 4.13768
H 10.12984 3.99229 4.90471
C 8.67453 6.48458 5.24917
C 7.18595 7.23750 5.60153
H 9.37586 7.31482 5.02936
H 9.00018 5.99964 6.19236
O 7.10311 8.29387 6.68525
H 6.47142 6.42524 5.85872
H 6.83246 7.69978 4.65505
C 5.76131 8.92614 6.99623
C 5.64904 10.16156 8.15816
H 5.07446 8.11925 7.33170
H 5.34800 9.34347 6.05284
O 4.32989 10.81280 8.51180
H 6.33211 10.96423 7.81173
H 6.06618 9.73434 9.09337
C 4.36145 11.91423 9.54850
O 3.03731 13.81671 11.06712
C 1.75280 14.47672 11.49849
C 1.79316 15.73906 12.61012
H 1.09602 13.69796 11.94147
H 1.24518 14.87679 10.59491
O 0.51739 16.39212 13.05465
H 2.43893 16.52742 12.16923
H 2.29991 15.34517 13.51598
C 0.65579 17.51841 14.03520
C -0.70390 18.29030 14.61303
H 1.27731 18.31166 13.56852
H 1.19051 17.13878 14.93113
O -0.51738 19.40537 15.58308
H -1.34080 17.51861 15.09587
H -1.25387 18.69116 13.73449
C -1.76399 20.04059 16.09066
C -1.61681 21.28170 17.16090
H -2.37957 19.26790 16.59858
H -2.34237 20.44140 15.23031
O -2.86484 21.88428 17.67007
H -1.02311 22.07997 16.66517
H -1.03988 20.90192 18.03081
C -2.65546 23.00092 18.61031
C -3.97747 23.67712 19.25690
H -2.11379 23.82047 18.09012
H -2.04108 22.65143 19.46758
O -3.71022 24.78286 20.17234
H -4.53618 22.88497 19.80133
H -4.61345 24.05821 18.42801
C -4.90509 25.27264 20.84911
C -4.66037 26.52430 21.79792
H -5.32545 24.46951 21.49225
H -5.67035 25.58626 20.10461
O -5.84711 26.94010 22.50761
H -4.28289 27.36452 21.17189
H -3.88578 26.25008 22.54673
C -5.64167 28.19528 23.18344
C -6.77363 28.55106 24.19617
H -5.60915 29.02042 22.43755
H -4.69464 28.18588 23.76924
O -6.51108 29.82454 24.77423
H -6.80952 27.76948 24.98919
H -7.74749 28.58891 23.65836
C -7.43229 30.11769 25.81360
H -8.48995 29.92251 25.52648
H -7.38168 31.20642 26.04364
H -7.16570 29.58147 26.75066
C 2.95271 12.71423 10.04176
H 2.49133 13.14147 9.12596
H 2.26331 11.93649 10.43477
H 5.03894 12.70857 9.17256
H 4.80541 11.49322 10.47458
C 14.33554 0.35249 0.03893
H 13.39172 0.35163 2.15523
C 15.70718 -0.66733 0.11613
H 14.54975 1.21198 -0.62783
H 13.76873 -0.31024 -0.63995
C 16.19818 -1.50748 -1.26282
H 15.47231 -1.45239 0.86722
O 17.27851 -2.47675 -1.48023
C 17.45611 -3.37537 -2.66747
O 15.49857 -1.27641 -2.23701
C 18.78172 -4.40006 -3.04683
H 17.34930 -2.73014 -3.56079
H 16.58354 -4.05542 -2.64164
O 18.69096 -5.31020 -4.27616
H 18.96703 -5.03796 -2.15494
H 19.67257 -3.73997 -3.15715
C 19.85680 -6.19106 -4.73326
C 19.66233 -7.29488 -6.06060
H 20.19714 -6.78486 -3.85642
H 20.69779 -5.51165 -4.99750
O 20.74712 -8.22423 -6.63887
H 19.31592 -6.65283 -6.89468
H 18.81918 -7.94236 -5.74979
C 20.38991 -9.15865 -7.81303
C 21.48640 -10.27508 -8.60410
H 20.00878 -8.50431 -8.62289
H 19.54624 -9.78420 -7.46011
O 21.07029 -11.20566 -9.77194
H 21.88614 -10.92139 -7.79367
H 22.33536 -9.65314 -8.96216
C 22.06446 -12.18205 -10.45158
C 21.63298 -13.27246 -11.76923
H 22.48084 -12.82676 -9.64850
H 22.90801 -11.56694 -10.83229
O 22.58287 -14.27231 -12.48528
H 21.22383 -12.60868 -12.55770
H 20.79036 -13.87193 -11.36970
C 22.07506 -15.18242 -13.63815
C 23.03545 -16.36315 -14.53244
H 21.66621 -14.50478 -14.41521
H 21.22477 -15.76345 -13.22702
O 22.48994 -17.25605 -15.67774
H 23.45383 -17.04955 -13.76639
H 23.89167 -15.79459 -14.95326
C 23.38796 -18.27742 -16.42263
C 22.84073 -19.31899 -17.72243
H 23.80412 -18.96655 -15.65792
H 24.24381 -17.71215 -16.84829
O 23.73146 -20.33533 -18.46139
H 22.43161 -18.64068 -18.49926
H 21.98909 -19.89583 -17.30691
C 23.14111 -21.19875 -19.59017
C 24.03670 -22.37233 -20.48779
H 22.73621 -20.50970 -20.35986
H 22.28786 -21.76598 -19.16453
O 23.38902 -23.19276 -21.59258
H 24.45101 -23.09551 -19.75356
H 24.89784 -21.84170 -20.94689
C 24.23303 -24.21041 -22.34020
C 23.57536 -25.15215 -23.57753
H 24.63810 -24.94037 -21.60751
H 25.09295 -23.68342 -22.80575
O 24.44014 -26.14446 -24.28703
H 23.17665 -24.45928 -24.34854
H 22.71969 -25.71571 -23.14910
C 23.77195 -26.92903 -25.36668
C 24.64051 -28.04492 -26.19533
H 23.38561 -26.23265 -26.14113
H 22.91700 -27.49240 -24.93598
O 23.90576 -28.76935 -27.23747
H 25.03539 -28.79341 -25.47364
H 25.50310 -27.53532 -26.67841
C 24.72857 -29.75177 -27.93843
C 24.00689 -30.58339 -29.08122
H 25.11473 -30.51058 -27.22253
H 25.58648 -29.24934 -28.43759
O 24.92460 -31.50612 -29.67602
H 23.62911 -29.89277 -29.86861
H 23.15342 -31.15312 -28.64952
C 24.31859 -32.27374 -30.71470
H 23.47635 -32.90242 -30.34874
H 25.06654 -32.99570 -31.12317
H 24.00976 -31.64890 -31.58230
H 13.00556 -7.71497 -8.39054
H 19.64361 2.64260 3.43028
C 18.16671 0.84302 1.19389
H 18.76217 1.67490 -3.61686
C 16.87216 0.17269 0.67907
H 17.00379 -0.92044 0.53607
H 16.61707 0.62039 -0.31202
C 17.58083 2.37193 1.56095
O 17.99800 3.29214 0.86621
O 16.55509 2.68458 2.55119
C 15.48048 3.71834 2.66832
C 15.15753 4.68044 4.03397
H 14.54003 3.13462 2.56549
H 15.51959 4.37760 1.77768
O 13.86658 5.47783 4.12552
H 16.01237 5.37961 4.13768
H 15.16760 3.99229 4.90471
C 13.71229 6.48458 5.24917
C 12.22371 7.23750 5.60153
H 14.41362 7.31482 5.02936
H 14.03794 5.99964 6.19236
O 12.14087 8.29387 6.68525
H 11.50918 6.42524 5.85872
H 11.87022 7.69978 4.65505
C 10.79907 8.92614 6.99623
C 10.68680 10.16156 8.15816
H 10.11222 8.11925 7.33170
H 10.38576 9.34347 6.05284
O 9.36765 10.81280 8.51180
H 11.36987 10.96423 7.81173
H 11.10394 9.73434 9.09337
C 9.39921 11.91423 9.54850
O 8.07507 13.81671 11.06712
C 6.79056 14.47672 11.49849
C 6.83092 15.73906 12.61012
H 6.13378 13.69796 11.94147
H 6.28294 14.87679 10.59491
O 5.55515 16.39212 13.05465
H 7.47669 16.52742 12.16923
H 7.33767 15.34517 13.51598
C 5.69355 17.51841 14.03520
C 4.33386 18.29030 14.61303
H 6.31507 18.31166 13.56852
H 6.22827 17.13878 14.93113
O 4.52038 19.40537 15.58308
H 3.69696 17.51861 15.09587
H 3.78389 18.69116 13.73449
C 3.27377 20.04059 16.09066
C 3.42095 21.28170 17.16090
H 2.65819 19.26790 16.59858
H 2.69539 20.44140 15.23031
O 2.17292 21.88428 17.67007
H 4.01465 22.07997 16.66517
H 3.99788 20.90192 18.03081
C 2.38230 23.00092 18.61031
C 1.06029 23.67712 19.25690
H 2.92397 23.82047 18.09012
H 2.99668 22.65143 19.46758
O 1.32754 24.78286 20.17234
H 0.50158 22.88497 19.80133
H 0.42431 24.05821 18.42801
C 0.13267 25.27264 20.84911
C 0.37739 26.52430 21.79792
H -0.28769 24.46951 21.49225
H -0.63259 25.58626 20.10461
O -0.80935 26.94010 22.50761
H 0.75487 27.36452 21.17189
H 1.15198 26.25008 22.54673
C -0.60391 28.19528 23.18344
C -1.73587 28.55106 24.19617
H -0.57139 29.02042 22.43755
H 0.34312 28.18588 23.76924
O -1.47332 29.82454 24.77423
H -1.77176 27.76948 24.98919
H -2.70973 28.58891 23.65836
C -2.39453 30.11769 25.81360
H -3.45219 29.92251 25.52648
H -2.34392 31.20642 26.04364
H -2.12794 29.58147 26.75066
C 7.99047 12.71423 10.04176
H 7.52909 13.14147 9.12596
H 7.30107 11.93649 10.43477
H 10.07670 12.70857 9.17256
H 9.84317 11.49322 10.47458
C 19.37330 0.35249 0.03893
H 18.42948 0.35163 2.15523
C 20.74494 -0.66733 0.11613
H 19.58751 1.21198 -0.62783
H 18.80649 -0.31024 -0.63995
C 21.23594 -1.50748 -1.26282
H 20.51007 -1.45239 0.86722
O 22.31627 -2.47675 -1.48023
C 22.49387 -3.37537 -2.66747
O 20.53633 -1.27641 -2.23701
C 23.81948 -4.40006 -3.04683
H 22.38706 -2.73014 -3.56079
H 21.62130 -4.05542 -2.64164
O 23.72872 -5.31020 -4.27616
H 24.00479 -5.03796 -2.15494
H 24.71033 -3.73997 -3.15715
C 24.89456 -6.19106 -4.73326
C 24.70009 -7.29488 -6.06060
H 25.23490 -6.78486 -3.85642
H 25.73555 -5.51165 -4.99750
O 25.78488 -8.22423 -6.63887
H 24.35368 -6.65283 -6.89468
H 23.85694 -7.94236 -5.74979
C 25.42767 -9.15865 -7.81303
C 26.52416 -10.27508 -8.60410
H 25.04654 -8.50431 -8.62289
H 24.58400 -9.78420 -7.46011
O 26.10805 -11.20566 -9.77194
H 26.92390 -10.92139 -7.79367
H 27.37312 -9.65314 -8.96216
C 27.10222 -12.18205 -10.45158
C 26.67074 -13.27246 -11.76923
H 27.51860 -12.82676 -9.64850
H 27.94577 -11.56694 -10.83229
O 27.62063 -14.27231 -12.48528
H 26.26159 -12.60868 -12.55770
H 25.82812 -13.87193 -11.36970
C 27.11282 -15.18242 -13.63815
C 28.07321 -16.36315 -14.53244
H 26.70397 -14.50478 -14.41521
H 26.26253 -15.76345 -13.22702
O 27.52770 -17.25605 -15.67774
H 28.49159 -17.04955 -13.76639
H 28.92943 -15.79459 -14.95326
C 28.42572 -18.27742 -16.42263
C 27.87849 -19.31899 -17.72243
H 28.84188 -18.96655 -15.65792
H 29.28157 -17.71215 -16.84829
O 28.76922 -20.33533 -18.46139
H 27.46937 -18.64068 -18.49926
H 27.02685 -19.89583 -17.30691
C 28.17887 -21.19875 -19.59017
C 29.07446 -22.37233 -20.48779
H 27.77397 -20.50970 -20.35986
H 27.32562 -21.76598 -19.16453
O 28.42678 -23.19276 -21.59258
H 29.48877 -23.09551 -19.75356
H 29.93560 -21.84170 -20.94689
C 29.27079 -24.21041 -22.34020
C 28.61312 -25.15215 -23.57753
H 29.67586 -24.94037 -21.60751
H 30.13071 -23.68342 -22.80575
O 29.47790 -26.14446 -24.28703
H 28.21441 -24.45928 -24.34854
H 27.75745 -25.71571 -23.14910
C 28.80971 -26.92903 -25.36668
C 29.67827 -28.04492 -26.19533
H 28.42337 -26.23265 -26.14113
H 27.95476 -27.49240 -24.93598
O 28.94352 -28.76935 -27.23747
H 30.07315 -28.79341 -25.47364
H 30.54086 -27.53532 -26.67841
C 29.76633 -29.75177 -27.93843
C 29.04465 -30.58339 -29.08122
H 30.15249 -30.51058 -27.22253
H 30.62424 -29.24934 -28.43759
O 29.96236 -31.50612 -29.67602
H 28.66687 -29.89277 -29.86861
H 28.19118 -31.15312 -28.64952
C 29.35635 -32.27374 -30.71470
H 28.51411 -32.90242 -30.34874
H 30.10430 -32.99570 -31.12317
H 29.04752 -31.64890 -31.58230
H 18.04332 -7.71497 -8.39054
H 24.68137 2.64260 3.43028
C 23.20447 0.84302 1.19389
H 23.79993 1.67490 -3.61686
C 21.90992 0.17269 0.67907
H 22.04155 -0.92044 0.53607
H 21.65483 0.62039 -0.31202
C 22.61859 2.37193 1.56095
O 23.03576 3.29214 0.86621
O 21.59285 2.68458 2.55119
C 20.51824 3.71834 2.66832
C 20.19529 4.68044 4.03397
H 19.57779 3.13462 2.56549
H 20.55735 4.37760 1.77768
O 18.90434 5.47783 4.12552
H 21.05013 5.37961 4.13768
H 20.20536 3.99229 4.90471
C 18.75005 6.48458 5.24917
C 17.26147 7.23750 5.60153
H 19.45138 7.31482 5.02936
H 19.07570 5.99964 6.19236
O 17.17863 8.29387 6.68525
H 16.54694 6.42524 5.85872
H 16.90798 7.69978 4.65505
C 15.83683 8.92614 6.99623
C 15.72456 10.16156 8.15816
H 15.14998 8.11925 7.33170
H 15.42352 9.34347 6.05284
O 14.40541 10.81280 8.51180
H 16.40763 10.96423 7.81173
H 16.14170 9.73434 9.09337
C 14.43697 11.91423 9.54850
O 13.11283 13.81671 11.06712
C 11.82832 14.47672 11.49849
C 11.86868 15.73906 12.61012
H 11.17154 13.69796 11.94147
H 11.32070 14.87679 10.59491
O 10.59291 16.39212 13.05465
H 12.51445 16.52742 12.16923
H 12.37543 15.34517 13.51598
C 10.73131 17.51841 14.03520
C 9.37162 18.29030 14.61303
H 11.35283 18.31166 13.56852
H 11.26603 17.13878 14.93113
O 9.55814 19.40537 15.58308
H 8.73472 17.51861 15.09587
H 8.82165 18.69116 13.73449
C 8.31153 20.04059 16.09066
C 8.45871 21.28170 17.16090
H 7.69595 19.26790 16.59858
H 7.73315 20.44140 15.23031
O 7.21068 21.88428 17.67007
H 9.05241 22.07997 16.66517
H 9.03564 20.90192 18.03081
C 7.42006 23.00092 18.61031
C 6.09805 23.67712 19.25690
H 7.96173 23.82047 18.09012
H 8.03444 22.65143 19.46758
O 6.36530 24.78286 20.17234
H 5.53934 22.88497 19.80133
H 5.46207 24.05821 18.42801
C 5.17043 25.27264 20.84911
C 5.41515 26.52430 21.79792
H 4.75007 24.46951 21.49225
H 4.40517 25.58626 20.10461
O 4.22841 26.94010 22.50761
H 5.79263 27.36452 21.17189
H 6.18974 26.25008 22.54673
C 4.43385 28.19528 23.18344
C 3.30189 28.55106 24.19617
H 4.46637 29.02042 22.43755
H 5.38088 28.18588 23.76924
O 3.56444 29.82454 24.77423
H 3.26600 27.76948 24.98919
H 2.32803 28.58891 23.65836
C 2.64323 30.11769 25.81360
H 1.58557 29.92251 25.52648
H 2.69384 31.20642 26.04364
H 2.90982 29.58147 26.75066
C 13.02823 12.71423 10.04176
H 12.56685 13.14147 9.12596
H 12.33883 11.93649 10.43477
H 15.11446 12.70857 9.17256
H 14.88093 11.49322 10.47458
C 24.41106 0.35249 0.03893
H 23.46724 0.35163 2.15523
C 25.78270 -0.66733 0.11613
H 24.62527 1.21198 -0.62783
H 23.84425 -0.31024 -0.63995
C 26.27370 -1.50748 -1.26282
H 25.54783 -1.45239 0.86722
O 27.35403 -2.47675 -1.48023
C 27.53163 -3.37537 -2.66747
O 25.57409 -1.27641 -2.23701
C 28.85724 -4.40006 -3.04683
H 27.42482 -2.73014 -3.56079
H 26.65906 -4.05542 -2.64164
O 28.76648 -5.31020 -4.27616
H 29.04255 -5.03796 -2.15494
H 29.74809 -3.73997 -3.15715
C 29.93232 -6.19106 -4.73326
C 29.73785 -7.29488 -6.06060
H 30.27266 -6.78486 -3.85642
H 30.77331 -5.51165 -4.99750
O 30.82264 -8.22423 -6.63887
H 29.39144 -6.65283 -6.89468
H 28.89470 -7.94236 -5.74979
C 30.46543 -9.15865 -7.81303
C 31.56192 -10.27508 -8.60410
H 30.08430 -8.50431 -8.62289
H 29.62176 -9.78420 -7.46011
O 31.14581 -11.20566 -9.77194
H 31.96166 -10.92139 -7.79367
H 32.41088 -9.65314 -8.96216
C 32.13998 -12.18205 -10.45158
C 31.70850 -13.27246 -11.76923
H 32.55636 -12.82676 -9.64850
H 32.98353 -11.56694 -10.83229
O 32.65839 -14.27231 -12.48528
H 31.29935 -12.60868 -12.55770
H 30.86588 -13.87193 -11.36970
C 32.15058 -15.18242 -13.63815
C 33.11097 -16.36315 -14.53244
H 31.74173 -14.50478 -14.41521
H 31.30029 -15.76345 -13.22702
O 32.56546 -17.25605 -15.67774
H 33.52935 -17.04955 -13.76639
H 33.96719 -15.79459 -14.95326
C 33.46348 -18.27742 -16.42263
C 32.91625 -19.31899 -17.72243
H 33.87964 -18.96655 -15.65792
H 34.31933 -17.71215 -16.84829
O 33.80698 -20.33533 -18.46139
H 32.50713 -18.64068 -18.49926
H 32.06461 -19.89583 -17.30691
C 33.21663 -21.19875 -19.59017
C 34.11222 -22.37233 -20.48779
H 32.81173 -20.50970 -20.35986
H 32.36338 -21.76598 -19.16453
O 33.46454 -23.19276 -21.59258
H 34.52653 -23.09551 -19.75356
H 34.97336 -21.84170 -20.94689
C 34.30855 -24.21041 -22.34020
C 33.65088 -25.15215 -23.57753
H 34.71362 -24.94037 -21.60751
H 35.16847 -23.68342 -22.80575
O 34.51566 -26.14446 -24.28703
H 33.25217 -24.45928 -24.34854
H 32.79521 -25.71571 -23.14910
C 33.84747 -26.92903 -25.36668
C 34.71603 -28.04492 -26.19533
H 33.46113 -26.23265 -26.14113
H 32.99252 -27.49240 -24.93598
O 33.98128 -28.76935 -27.23747
H 35.11091 -28.79341 -25.47364
H 35.57862 -27.53532 -26.67841
C 34.80409 -29.75177 -27.93843
C 34.08241 -30.58339 -29.08122
H 35.19025 -30.51058 -27.22253
H 35.66200 -29.24934 -28.43759
O 35.00012 -31.50612 -29.67602
H 33.70463 -29.89277 -29.86861
H 33.22894 -31.15312 -28.64952
C 34.39411 -32.27374 -30.71470
H 33.55187 -32.90242 -30.34874
H 35.14206 -32.99570 -31.12317
H 34.08528 -31.64890 -31.58230
H 23.08108 -7.71497 -8.39054
H 29.71913 2.64260 3.43028
C 28.24223 0.84302 1.19389
H 28.83769 1.67490 -3.61686
C 26.94768 0.17269 0.67907
H 27.07931 -0.92044 0.53607
H 26.69259 0.62039 -0.31202
C 27.65635 2.37193 1.56095
O 28.07352 3.29214 0.86621
O 26.63061 2.68458 2.55119
C 25.55600 3.71834 2.66832
C 25.23305 4.68044 4.03397
H 24.61555 3.13462 2.56549
H 25.59511 4.37760 1.77768
O 23.94210 5.47783 4.12552
H 26.08789 5.37961 4.13768
H 25.24312 3.99229 4.90471
C 23.78781 6.48458 5.24917
C 22.29923 7.23750 5.60153
H 24.48914 7.31482 5.02936
H 24.11346 5.99964 6.19236
O 22.21639 8.29387 6.68525
H 21.58470 6.42524 5.85872
H 21.94574 7.69978 4.65505
C 20.87459 8.92614 6.99623
C 20.76232 10.16156 8.15816
H 20.18774 8.11925 7.33170
H 20.46128 9.34347 6.05284
O 19.44317 10.81280 8.51180
H 21.44539 10.96423 7.81173
H 21.17946 9.73434 9.09337
C 19.47473 11.91423 9.54850