! RI BP86 def2-SVP def2/J D3BJ TIGHTSCF  Opt Grid3 FinalGrid5
%maxcore 3000
%geom
optimizehydrogens true
end


*xyz 0 1
O	-2.411509	-0.815638	-0.380838
C	-1.577379	-1.846738	0.156792
C	-0.136369	-1.667868	-0.306078
H	-1.972309	-2.806228	-0.191088
H	-1.653979	-1.821048	1.250962
O	0.416841	-0.441998	0.189032
H	-0.070559	-1.658768	-1.401038
H	0.484211	-2.487498	0.068322
H	-0.572661	-2.347685	-0.104518
H	1.464541	-2.067354	0.238122
*